
Version,
  24.2;                                   !- Version Identifier

Timestep,
  4;                                      !- Number of Timesteps per Hour

LifeCycleCost:Parameters,
  Life Cycle Cost Parameters,             !- Name
  EndOfYear,                              !- Discounting Convention
  ConstantDollar,                         !- Inflation Approach
  0.03,                                   !- Real Discount Rate
  ,                                       !- Nominal Discount Rate
  ,                                       !- Inflation
  ,                                       !- Base Date Month
  2011,                                   !- Base Date Year
  ,                                       !- Service Date Month
  2011,                                   !- Service Date Year
  25,                                     !- Length of Study Period in Years
  ,                                       !- Tax rate
  None;                                   !- Depreciation Method

LifeCycleCost:UsePriceEscalation,
  U.S. Avg  Commercial-Electricity,       !- Name
  Electricity,                            !- Resource
  2011,                                   !- Escalation Start Year
  January,                                !- Escalation Start Month
  0.9838,                                 !- Year Escalation 1
  0.9730,                                 !- Year Escalation 2
  0.9632,                                 !- Year Escalation 3
  0.9611,                                 !- Year Escalation 4
  0.9571,                                 !- Year Escalation 5
  0.9553,                                 !- Year Escalation 6
  0.9539,                                 !- Year Escalation 7
  0.9521,                                 !- Year Escalation 8
  0.9546,                                 !- Year Escalation 9
  0.9550,                                 !- Year Escalation 10
  0.9553,                                 !- Year Escalation 11
  0.9564,                                 !- Year Escalation 12
  0.9575,                                 !- Year Escalation 13
  0.9596,                                 !- Year Escalation 14
  0.9618,                                 !- Year Escalation 15
  0.9614,                                 !- Year Escalation 16
  0.9618,                                 !- Year Escalation 17
  0.9618,                                 !- Year Escalation 18
  0.9593,                                 !- Year Escalation 19
  0.9589,                                 !- Year Escalation 20
  0.9607,                                 !- Year Escalation 21
  0.9625,                                 !- Year Escalation 22
  0.9650,                                 !- Year Escalation 23
  0.9708,                                 !- Year Escalation 24
  0.9751,                                 !- Year Escalation 25
  0.9762,                                 !- Year Escalation 26
  0.9766,                                 !- Year Escalation 27
  0.9766,                                 !- Year Escalation 28
  0.9769,                                 !- Year Escalation 29
  0.9773;                                 !- Year Escalation 30

LifeCycleCost:UsePriceEscalation,
  U.S. Avg  Commercial-Distillate Oil,    !- Name
  FuelOilNo1,                             !- Resource
  2011,                                   !- Escalation Start Year
  January,                                !- Escalation Start Month
  0.9714,                                 !- Year Escalation 1
  0.9730,                                 !- Year Escalation 2
  0.9942,                                 !- Year Escalation 3
  1.0164,                                 !- Year Escalation 4
  1.0541,                                 !- Year Escalation 5
  1.0928,                                 !- Year Escalation 6
  1.1267,                                 !- Year Escalation 7
  1.1580,                                 !- Year Escalation 8
  1.1792,                                 !- Year Escalation 9
  1.1967,                                 !- Year Escalation 10
  1.2200,                                 !- Year Escalation 11
  1.2333,                                 !- Year Escalation 12
  1.2566,                                 !- Year Escalation 13
  1.2709,                                 !- Year Escalation 14
  1.2826,                                 !- Year Escalation 15
  1.2985,                                 !- Year Escalation 16
  1.3102,                                 !- Year Escalation 17
  1.3250,                                 !- Year Escalation 18
  1.3261,                                 !- Year Escalation 19
  1.3282,                                 !- Year Escalation 20
  1.3324,                                 !- Year Escalation 21
  1.3356,                                 !- Year Escalation 22
  1.3431,                                 !- Year Escalation 23
  1.3510,                                 !- Year Escalation 24
  1.3568,                                 !- Year Escalation 25
  1.3606,                                 !- Year Escalation 26
  1.3637,                                 !- Year Escalation 27
  1.3674,                                 !- Year Escalation 28
  1.3706,                                 !- Year Escalation 29
  1.3743;                                 !- Year Escalation 30

LifeCycleCost:UsePriceEscalation,
  U.S. Avg  Commercial-Residual Oil,      !- Name
  FuelOilNo2,                             !- Resource
  2011,                                   !- Escalation Start Year
  January,                                !- Escalation Start Month
  0.8469,                                 !- Year Escalation 1
  0.8257,                                 !- Year Escalation 2
  0.8681,                                 !- Year Escalation 3
  0.8988,                                 !- Year Escalation 4
  0.9289,                                 !- Year Escalation 5
  0.9604,                                 !- Year Escalation 6
  0.9897,                                 !- Year Escalation 7
  1.0075,                                 !- Year Escalation 8
  1.0314,                                 !- Year Escalation 9
  1.0554,                                 !- Year Escalation 10
  1.0861,                                 !- Year Escalation 11
  1.1278,                                 !- Year Escalation 12
  1.1497,                                 !- Year Escalation 13
  1.1620,                                 !- Year Escalation 14
  1.1743,                                 !- Year Escalation 15
  1.1852,                                 !- Year Escalation 16
  1.1948,                                 !- Year Escalation 17
  1.2037,                                 !- Year Escalation 18
  1.2071,                                 !- Year Escalation 19
  1.2119,                                 !- Year Escalation 20
  1.2139,                                 !- Year Escalation 21
  1.2194,                                 !- Year Escalation 22
  1.2276,                                 !- Year Escalation 23
  1.2365,                                 !- Year Escalation 24
  1.2420,                                 !- Year Escalation 25
  1.2461,                                 !- Year Escalation 26
  1.2509,                                 !- Year Escalation 27
  1.2550,                                 !- Year Escalation 28
  1.2591,                                 !- Year Escalation 29
  1.2638;                                 !- Year Escalation 30

LifeCycleCost:UsePriceEscalation,
  U.S. Avg  Commercial-Natural gas,       !- Name
  NaturalGas,                             !- Resource
  2011,                                   !- Escalation Start Year
  January,                                !- Escalation Start Month
  0.9823,                                 !- Year Escalation 1
  0.9557,                                 !- Year Escalation 2
  0.9279,                                 !- Year Escalation 3
  0.9257,                                 !- Year Escalation 4
  0.9346,                                 !- Year Escalation 5
  0.9412,                                 !- Year Escalation 6
  0.9512,                                 !- Year Escalation 7
  0.9645,                                 !- Year Escalation 8
  0.9856,                                 !- Year Escalation 9
  1.0067,                                 !- Year Escalation 10
  1.0222,                                 !- Year Escalation 11
  1.0410,                                 !- Year Escalation 12
  1.0610,                                 !- Year Escalation 13
  1.0787,                                 !- Year Escalation 14
  1.0942,                                 !- Year Escalation 15
  1.1098,                                 !- Year Escalation 16
  1.1220,                                 !- Year Escalation 17
  1.1308,                                 !- Year Escalation 18
  1.1386,                                 !- Year Escalation 19
  1.1486,                                 !- Year Escalation 20
  1.1619,                                 !- Year Escalation 21
  1.1763,                                 !- Year Escalation 22
  1.1918,                                 !- Year Escalation 23
  1.2118,                                 !- Year Escalation 24
  1.2284,                                 !- Year Escalation 25
  1.2439,                                 !- Year Escalation 26
  1.2605,                                 !- Year Escalation 27
  1.2772,                                 !- Year Escalation 28
  1.2938,                                 !- Year Escalation 29
  1.3115;                                 !- Year Escalation 30

LifeCycleCost:UsePriceEscalation,
  U.S. Avg  Commercial-Coal,              !- Name
  Coal,                                   !- Resource
  2011,                                   !- Escalation Start Year
  January,                                !- Escalation Start Month
  0.9970,                                 !- Year Escalation 1
  1.0089,                                 !- Year Escalation 2
  1.0089,                                 !- Year Escalation 3
  0.9941,                                 !- Year Escalation 4
  0.9941,                                 !- Year Escalation 5
  1.0000,                                 !- Year Escalation 6
  1.0030,                                 !- Year Escalation 7
  1.0059,                                 !- Year Escalation 8
  1.0089,                                 !- Year Escalation 9
  1.0119,                                 !- Year Escalation 10
  1.0148,                                 !- Year Escalation 11
  1.0178,                                 !- Year Escalation 12
  1.0208,                                 !- Year Escalation 13
  1.0267,                                 !- Year Escalation 14
  1.0297,                                 !- Year Escalation 15
  1.0356,                                 !- Year Escalation 16
  1.0415,                                 !- Year Escalation 17
  1.0534,                                 !- Year Escalation 18
  1.0564,                                 !- Year Escalation 19
  1.0593,                                 !- Year Escalation 20
  1.0653,                                 !- Year Escalation 21
  1.0712,                                 !- Year Escalation 22
  1.0742,                                 !- Year Escalation 23
  1.0801,                                 !- Year Escalation 24
  1.0831,                                 !- Year Escalation 25
  1.0831,                                 !- Year Escalation 26
  1.0861,                                 !- Year Escalation 27
  1.0890,                                 !- Year Escalation 28
  1.0920,                                 !- Year Escalation 29
  1.0950;                                 !- Year Escalation 30

Building,
  LowriseApartment,                       !- Name
  0,                                      !- North Axis {deg}
  City,                                   !- Terrain
  0.04,                                   !- Loads Convergence Tolerance Value {W}
  0.4,                                    !- Temperature Convergence Tolerance Value {deltaC}
  FullExterior,                           !- Solar Distribution
  25,                                     !- Maximum Number of Warmup Days
  6;                                      !- Minimum Number of Warmup Days

Zone,
  DU_BT=Space Function_ST=Dwelling units general_FL=Building Story 1_SCHG, !- Name
  0,                                      !- Direction of Relative North {deg}
  23.1636701633044,                       !- X Origin {m}
  9.29594664423115,                       !- Y Origin {m}
  0,                                      !- Z Origin {m}
  ,                                       !- Type
  1,                                      !- Multiplier
  ,                                       !- Ceiling Height {m}
  ,                                       !- Volume {m3}
  ,                                       !- Floor Area {m2}
  ,                                       !- Zone Inside Convection Algorithm
  ,                                       !- Zone Outside Convection Algorithm
  Yes;                                    !- Part of Total Floor Area

Space,
  G NE Apartment,                         !- Name
  DU_BT=Space Function_ST=Dwelling units general_FL=Building Story 1_SCHG, !- Zone Name
  ,                                       !- Ceiling Height {m}
  268.970639426713,                       !- Volume {m3}
  ,                                       !- Floor Area {m2}
  Space Function Dwelling units general;  !- Space Type

SpaceList,
  Space Function Dwelling units general,  !- Name
  T SE Apartment,                         !- Space Name 1
  T SW Apartment,                         !- Space Name 2
  T N1 Apartment,                         !- Space Name 3
  T NW Apartment,                         !- Space Name 4
  M SW Apartment,                         !- Space Name 5
  G N1 Apartment,                         !- Space Name 6
  M SE Apartment,                         !- Space Name 7
  G SW Apartment,                         !- Space Name 8
  G NE Apartment,                         !- Space Name 9
  M NW Apartment,                         !- Space Name 10
  G NW Apartment,                         !- Space Name 11
  T NE Apartment,                         !- Space Name 12
  Office,                                 !- Space Name 13
  M S1 Apartment,                         !- Space Name 14
  M N1 Apartment,                         !- Space Name 15
  M NE Apartment,                         !- Space Name 16
  T S1 Apartment,                         !- Space Name 17
  G S1 Apartment;                         !- Space Name 18

Lights,
  Space Function Dwelling units general Lights, !- Name
  Space Function Dwelling units general,  !- Zone or ZoneList or Space or SpaceList Name
  NECB-G-Lighting,                        !- Schedule Name
  Watts/Area,                             !- Design Level Calculation Method
  ,                                       !- Lighting Level {W}
  5.00181710813649,                       !- Watts per Floor Area {W/m2}
  ,                                       !- Watts per Person {W/person}
  ,                                       !- Return Air Fraction
  0.5,                                    !- Fraction Radiant
  0.2,                                    !- Fraction Visible
  1,                                      !- Fraction Replaceable
  General;                                !- End-Use Subcategory

ScheduleTypeLimits,
  Fractional,                             !- Name
  0,                                      !- Lower Limit Value {BasedOnField A3}
  1,                                      !- Upper Limit Value {BasedOnField A3}
  Continuous;                             !- Numeric Type

Schedule:Day:Interval,
  NECB-G-Lighting Sun|Hol Day,            !- Name
  Fractional,                             !- Schedule Type Limits Name
  No,                                     !- Interpolate to Timestep
  01:00,                                  !- Time 1 {hh:mm}
  0.3,                                    !- Value Until Time 1
  06:00,                                  !- Time 2 {hh:mm}
  0,                                      !- Value Until Time 2
  07:00,                                  !- Time 3 {hh:mm}
  0.2,                                    !- Value Until Time 3
  09:00,                                  !- Time 4 {hh:mm}
  0.5,                                    !- Value Until Time 4
  19:00,                                  !- Time 5 {hh:mm}
  0,                                      !- Value Until Time 5
  22:00,                                  !- Time 6 {hh:mm}
  0.9,                                    !- Value Until Time 6
  23:00,                                  !- Time 7 {hh:mm}
  0.8,                                    !- Value Until Time 7
  24:00,                                  !- Time 8 {hh:mm}
  0.6;                                    !- Value Until Time 8

Schedule:Day:Interval,
  NECB-G-Lighting Default|Wkdy Day,       !- Name
  Fractional,                             !- Schedule Type Limits Name
  No,                                     !- Interpolate to Timestep
  01:00,                                  !- Time 1 {hh:mm}
  0.3,                                    !- Value Until Time 1
  06:00,                                  !- Time 2 {hh:mm}
  0,                                      !- Value Until Time 2
  07:00,                                  !- Time 3 {hh:mm}
  0.2,                                    !- Value Until Time 3
  09:00,                                  !- Time 4 {hh:mm}
  0.5,                                    !- Value Until Time 4
  19:00,                                  !- Time 5 {hh:mm}
  0,                                      !- Value Until Time 5
  22:00,                                  !- Time 6 {hh:mm}
  0.9,                                    !- Value Until Time 6
  23:00,                                  !- Time 7 {hh:mm}
  0.8,                                    !- Value Until Time 7
  24:00,                                  !- Time 8 {hh:mm}
  0.6;                                    !- Value Until Time 8

Schedule:Day:Interval,
  NECB-G-Lighting Sat Day,                !- Name
  Fractional,                             !- Schedule Type Limits Name
  No,                                     !- Interpolate to Timestep
  01:00,                                  !- Time 1 {hh:mm}
  0.3,                                    !- Value Until Time 1
  06:00,                                  !- Time 2 {hh:mm}
  0,                                      !- Value Until Time 2
  07:00,                                  !- Time 3 {hh:mm}
  0.2,                                    !- Value Until Time 3
  09:00,                                  !- Time 4 {hh:mm}
  0.5,                                    !- Value Until Time 4
  19:00,                                  !- Time 5 {hh:mm}
  0,                                      !- Value Until Time 5
  22:00,                                  !- Time 6 {hh:mm}
  0.9,                                    !- Value Until Time 6
  23:00,                                  !- Time 7 {hh:mm}
  0.8,                                    !- Value Until Time 7
  24:00,                                  !- Time 8 {hh:mm}
  0.6;                                    !- Value Until Time 8

Schedule:Week:Daily,
  NECB-G-Lighting Week Rule - Jan1-Dec31, !- Name
  NECB-G-Lighting Sun|Hol Day,            !- Sunday Schedule:Day Name
  NECB-G-Lighting Default|Wkdy Day,       !- Monday Schedule:Day Name
  NECB-G-Lighting Default|Wkdy Day,       !- Tuesday Schedule:Day Name
  NECB-G-Lighting Default|Wkdy Day,       !- Wednesday Schedule:Day Name
  NECB-G-Lighting Default|Wkdy Day,       !- Thursday Schedule:Day Name
  NECB-G-Lighting Default|Wkdy Day,       !- Friday Schedule:Day Name
  NECB-G-Lighting Sat Day,                !- Saturday Schedule:Day Name
  NECB-G-Lighting Default,                !- Holiday Schedule:Day Name
  NECB-G-Lighting Default,                !- SummerDesignDay Schedule:Day Name
  NECB-G-Lighting Default,                !- WinterDesignDay Schedule:Day Name
  NECB-G-Lighting Default,                !- CustomDay1 Schedule:Day Name
  NECB-G-Lighting Default;                !- CustomDay2 Schedule:Day Name

Schedule:Year,
  NECB-G-Lighting,                        !- Name
  Fractional,                             !- Schedule Type Limits Name
  NECB-G-Lighting Week Rule - Jan1-Dec31, !- Schedule:Week Name 1
  1,                                      !- Start Month 1
  1,                                      !- Start Day 1
  12,                                     !- End Month 1
  31;                                     !- End Day 1

Schedule:Day:Interval,
  NECB-G-Lighting Default,                !- Name
  Fractional,                             !- Schedule Type Limits Name
  No,                                     !- Interpolate to Timestep
  01:00,                                  !- Time 1 {hh:mm}
  0.3,                                    !- Value Until Time 1
  06:00,                                  !- Time 2 {hh:mm}
  0,                                      !- Value Until Time 2
  07:00,                                  !- Time 3 {hh:mm}
  0.2,                                    !- Value Until Time 3
  09:00,                                  !- Time 4 {hh:mm}
  0.5,                                    !- Value Until Time 4
  19:00,                                  !- Time 5 {hh:mm}
  0,                                      !- Value Until Time 5
  22:00,                                  !- Time 6 {hh:mm}
  0.9,                                    !- Value Until Time 6
  23:00,                                  !- Time 7 {hh:mm}
  0.8,                                    !- Value Until Time 7
  24:00,                                  !- Time 8 {hh:mm}
  0.6;                                    !- Value Until Time 8

People,
  Space Function Dwelling units general People, !- Name
  Space Function Dwelling units general,  !- Zone or ZoneList or Space or SpaceList Name
  NECB-G-Occupancy,                       !- Number of People Schedule Name
  People/Area,                            !- Number of People Calculation Method
  ,                                       !- Number of People
  0.0400145368650919,                     !- People per Floor Area {person/m2}
  ,                                       !- Floor Area per Person {m2/person}
  0.3,                                    !- Fraction Radiant
  ,                                       !- Sensible Heat Fraction
  NECB-Activity,                          !- Activity Level Schedule Name
  ,                                       !- Carbon Dioxide Generation Rate {m3/s-W}
  ,                                       !- Enable ASHRAE 55 Comfort Warnings
  ,                                       !- Mean Radiant Temperature Calculation Type
  ,                                       !- Surface Name/Angle Factor List Name
  Work Efficiency Schedule,               !- Work Efficiency Schedule Name
  ,                                       !- Clothing Insulation Calculation Method
  ,                                       !- Clothing Insulation Calculation Method Schedule Name
  Clothing Schedule,                      !- Clothing Insulation Schedule Name
  Air Velocity Schedule;                  !- Air Velocity Schedule Name

Schedule:Day:Interval,
  NECB-G-Occupancy Sun|Hol Day,           !- Name
  Fractional,                             !- Schedule Type Limits Name
  No,                                     !- Interpolate to Timestep
  07:00,                                  !- Time 1 {hh:mm}
  0.9,                                    !- Value Until Time 1
  08:00,                                  !- Time 2 {hh:mm}
  0.7,                                    !- Value Until Time 2
  17:00,                                  !- Time 3 {hh:mm}
  0.5,                                    !- Value Until Time 3
  18:00,                                  !- Time 4 {hh:mm}
  0.7,                                    !- Value Until Time 4
  24:00,                                  !- Time 5 {hh:mm}
  0.9;                                    !- Value Until Time 5

Schedule:Day:Interval,
  NECB-G-Occupancy Default|Wkdy Day,      !- Name
  Fractional,                             !- Schedule Type Limits Name
  No,                                     !- Interpolate to Timestep
  07:00,                                  !- Time 1 {hh:mm}
  0.9,                                    !- Value Until Time 1
  08:00,                                  !- Time 2 {hh:mm}
  0.7,                                    !- Value Until Time 2
  09:00,                                  !- Time 3 {hh:mm}
  0.4,                                    !- Value Until Time 3
  17:00,                                  !- Time 4 {hh:mm}
  0.3,                                    !- Value Until Time 4
  18:00,                                  !- Time 5 {hh:mm}
  0.5,                                    !- Value Until Time 5
  24:00,                                  !- Time 6 {hh:mm}
  0.9;                                    !- Value Until Time 6

Schedule:Day:Interval,
  NECB-G-Occupancy Sat Day,               !- Name
  Fractional,                             !- Schedule Type Limits Name
  No,                                     !- Interpolate to Timestep
  07:00,                                  !- Time 1 {hh:mm}
  0.9,                                    !- Value Until Time 1
  08:00,                                  !- Time 2 {hh:mm}
  0.7,                                    !- Value Until Time 2
  17:00,                                  !- Time 3 {hh:mm}
  0.5,                                    !- Value Until Time 3
  18:00,                                  !- Time 4 {hh:mm}
  0.7,                                    !- Value Until Time 4
  24:00,                                  !- Time 5 {hh:mm}
  0.9;                                    !- Value Until Time 5

Schedule:Week:Daily,
  NECB-G-Occupancy Week Rule - Jan1-Dec31, !- Name
  NECB-G-Occupancy Sun|Hol Day,           !- Sunday Schedule:Day Name
  NECB-G-Occupancy Default|Wkdy Day,      !- Monday Schedule:Day Name
  NECB-G-Occupancy Default|Wkdy Day,      !- Tuesday Schedule:Day Name
  NECB-G-Occupancy Default|Wkdy Day,      !- Wednesday Schedule:Day Name
  NECB-G-Occupancy Default|Wkdy Day,      !- Thursday Schedule:Day Name
  NECB-G-Occupancy Default|Wkdy Day,      !- Friday Schedule:Day Name
  NECB-G-Occupancy Sat Day,               !- Saturday Schedule:Day Name
  NECB-G-Occupancy Default,               !- Holiday Schedule:Day Name
  NECB-G-Occupancy Default,               !- SummerDesignDay Schedule:Day Name
  NECB-G-Occupancy Default,               !- WinterDesignDay Schedule:Day Name
  NECB-G-Occupancy Default,               !- CustomDay1 Schedule:Day Name
  NECB-G-Occupancy Default;               !- CustomDay2 Schedule:Day Name

Schedule:Year,
  NECB-G-Occupancy,                       !- Name
  Fractional,                             !- Schedule Type Limits Name
  NECB-G-Occupancy Week Rule - Jan1-Dec31, !- Schedule:Week Name 1
  1,                                      !- Start Month 1
  1,                                      !- Start Day 1
  12,                                     !- End Month 1
  31;                                     !- End Day 1

Schedule:Day:Interval,
  NECB-G-Occupancy Default,               !- Name
  Fractional,                             !- Schedule Type Limits Name
  No,                                     !- Interpolate to Timestep
  07:00,                                  !- Time 1 {hh:mm}
  0.9,                                    !- Value Until Time 1
  08:00,                                  !- Time 2 {hh:mm}
  0.7,                                    !- Value Until Time 2
  09:00,                                  !- Time 3 {hh:mm}
  0.4,                                    !- Value Until Time 3
  17:00,                                  !- Time 4 {hh:mm}
  0.3,                                    !- Value Until Time 4
  18:00,                                  !- Time 5 {hh:mm}
  0.5,                                    !- Value Until Time 5
  24:00,                                  !- Time 6 {hh:mm}
  0.9;                                    !- Value Until Time 6

ScheduleTypeLimits,
  ActivityLevel,                          !- Name
  0,                                      !- Lower Limit Value {BasedOnField A3}
  ,                                       !- Upper Limit Value {BasedOnField A3}
  Continuous,                             !- Numeric Type
  activitylevel;                          !- Unit Type

Schedule:Day:Interval,
  NECB-Activity Default,                  !- Name
  ActivityLevel,                          !- Schedule Type Limits Name
  No,                                     !- Interpolate to Timestep
  24:00,                                  !- Time 1 {hh:mm}
  130;                                    !- Value Until Time 1

Schedule:Week:Daily,
  NECB-Activity Week Rule - Jan1-Dec31,   !- Name
  NECB-Activity Default,                  !- Sunday Schedule:Day Name
  NECB-Activity Default,                  !- Monday Schedule:Day Name
  NECB-Activity Default,                  !- Tuesday Schedule:Day Name
  NECB-Activity Default,                  !- Wednesday Schedule:Day Name
  NECB-Activity Default,                  !- Thursday Schedule:Day Name
  NECB-Activity Default,                  !- Friday Schedule:Day Name
  NECB-Activity Default,                  !- Saturday Schedule:Day Name
  NECB-Activity Default,                  !- Holiday Schedule:Day Name
  NECB-Activity Summer Design Day,        !- SummerDesignDay Schedule:Day Name
  NECB-Activity Winter Design Day,        !- WinterDesignDay Schedule:Day Name
  NECB-Activity Default,                  !- CustomDay1 Schedule:Day Name
  NECB-Activity Default;                  !- CustomDay2 Schedule:Day Name

Schedule:Year,
  NECB-Activity,                          !- Name
  ActivityLevel,                          !- Schedule Type Limits Name
  NECB-Activity Week Rule - Jan1-Dec31,   !- Schedule:Week Name 1
  1,                                      !- Start Month 1
  1,                                      !- Start Day 1
  12,                                     !- End Month 1
  31;                                     !- End Day 1

Schedule:Day:Interval,
  NECB-Activity Summer Design Day,        !- Name
  ActivityLevel,                          !- Schedule Type Limits Name
  No,                                     !- Interpolate to Timestep
  24:00,                                  !- Time 1 {hh:mm}
  130;                                    !- Value Until Time 1

Schedule:Day:Interval,
  NECB-Activity Winter Design Day,        !- Name
  ActivityLevel,                          !- Schedule Type Limits Name
  No,                                     !- Interpolate to Timestep
  24:00,                                  !- Time 1 {hh:mm}
  130;                                    !- Value Until Time 1

Schedule:Day:Interval,
  Work Efficiency Schedule Default,       !- Name
  Fractional,                             !- Schedule Type Limits Name
  No,                                     !- Interpolate to Timestep
  24:00,                                  !- Time 1 {hh:mm}
  0;                                      !- Value Until Time 1

Schedule:Week:Daily,
  Work Efficiency Schedule Week Rule - Jan1-Dec31, !- Name
  Work Efficiency Schedule Default,       !- Sunday Schedule:Day Name
  Work Efficiency Schedule Default,       !- Monday Schedule:Day Name
  Work Efficiency Schedule Default,       !- Tuesday Schedule:Day Name
  Work Efficiency Schedule Default,       !- Wednesday Schedule:Day Name
  Work Efficiency Schedule Default,       !- Thursday Schedule:Day Name
  Work Efficiency Schedule Default,       !- Friday Schedule:Day Name
  Work Efficiency Schedule Default,       !- Saturday Schedule:Day Name
  Work Efficiency Schedule Default,       !- Holiday Schedule:Day Name
  Work Efficiency Schedule Default,       !- SummerDesignDay Schedule:Day Name
  Work Efficiency Schedule Default,       !- WinterDesignDay Schedule:Day Name
  Work Efficiency Schedule Default,       !- CustomDay1 Schedule:Day Name
  Work Efficiency Schedule Default;       !- CustomDay2 Schedule:Day Name

Schedule:Year,
  Work Efficiency Schedule,               !- Name
  Fractional,                             !- Schedule Type Limits Name
  Work Efficiency Schedule Week Rule - Jan1-Dec31, !- Schedule:Week Name 1
  1,                                      !- Start Month 1
  1,                                      !- Start Day 1
  12,                                     !- End Month 1
  31;                                     !- End Day 1

ScheduleTypeLimits,
  Any Number;                             !- Name

Schedule:Day:Interval,
  Clothing Schedule Default Winter Clothes, !- Name
  Any Number,                             !- Schedule Type Limits Name
  No,                                     !- Interpolate to Timestep
  24:00,                                  !- Time 1 {hh:mm}
  1;                                      !- Value Until Time 1

Schedule:Week:Daily,
  Clothing Schedule Week Rule - Jan1-Dec31, !- Name
  Clothing Schedule Default Winter Clothes, !- Sunday Schedule:Day Name
  Clothing Schedule Default Winter Clothes, !- Monday Schedule:Day Name
  Clothing Schedule Default Winter Clothes, !- Tuesday Schedule:Day Name
  Clothing Schedule Default Winter Clothes, !- Wednesday Schedule:Day Name
  Clothing Schedule Default Winter Clothes, !- Thursday Schedule:Day Name
  Clothing Schedule Default Winter Clothes, !- Friday Schedule:Day Name
  Clothing Schedule Default Winter Clothes, !- Saturday Schedule:Day Name
  Clothing Schedule Default Winter Clothes, !- Holiday Schedule:Day Name
  Clothing Schedule Default Winter Clothes, !- SummerDesignDay Schedule:Day Name
  Clothing Schedule Default Winter Clothes, !- WinterDesignDay Schedule:Day Name
  Clothing Schedule Default Winter Clothes, !- CustomDay1 Schedule:Day Name
  Clothing Schedule Default Winter Clothes; !- CustomDay2 Schedule:Day Name

Schedule:Year,
  Clothing Schedule,                      !- Name
  Any Number,                             !- Schedule Type Limits Name
  Clothing Schedule Week Rule - Jan1-Dec31, !- Schedule:Week Name 1
  1,                                      !- Start Month 1
  1,                                      !- Start Day 1
  12,                                     !- End Month 1
  31;                                     !- End Day 1

Schedule:Day:Interval,
  Clothing Schedule Summer Clothes,       !- Name
  Any Number,                             !- Schedule Type Limits Name
  No,                                     !- Interpolate to Timestep
  24:00,                                  !- Time 1 {hh:mm}
  0.5;                                    !- Value Until Time 1

ScheduleTypeLimits,
  Velocity,                               !- Name
  0,                                      !- Lower Limit Value {BasedOnField A3}
  ,                                       !- Upper Limit Value {BasedOnField A3}
  Continuous,                             !- Numeric Type
  velocity;                               !- Unit Type

Schedule:Day:Interval,
  Air Velocity Schedule Default,          !- Name
  Velocity,                               !- Schedule Type Limits Name
  No,                                     !- Interpolate to Timestep
  24:00,                                  !- Time 1 {hh:mm}
  0.2;                                    !- Value Until Time 1

Schedule:Week:Daily,
  Air Velocity Schedule Week Rule - Jan1-Dec31, !- Name
  Air Velocity Schedule Default,          !- Sunday Schedule:Day Name
  Air Velocity Schedule Default,          !- Monday Schedule:Day Name
  Air Velocity Schedule Default,          !- Tuesday Schedule:Day Name
  Air Velocity Schedule Default,          !- Wednesday Schedule:Day Name
  Air Velocity Schedule Default,          !- Thursday Schedule:Day Name
  Air Velocity Schedule Default,          !- Friday Schedule:Day Name
  Air Velocity Schedule Default,          !- Saturday Schedule:Day Name
  Air Velocity Schedule Default,          !- Holiday Schedule:Day Name
  Air Velocity Schedule Default,          !- SummerDesignDay Schedule:Day Name
  Air Velocity Schedule Default,          !- WinterDesignDay Schedule:Day Name
  Air Velocity Schedule Default,          !- CustomDay1 Schedule:Day Name
  Air Velocity Schedule Default;          !- CustomDay2 Schedule:Day Name

Schedule:Year,
  Air Velocity Schedule,                  !- Name
  Velocity,                               !- Schedule Type Limits Name
  Air Velocity Schedule Week Rule - Jan1-Dec31, !- Schedule:Week Name 1
  1,                                      !- Start Month 1
  1,                                      !- Start Day 1
  12,                                     !- End Month 1
  31;                                     !- End Day 1

ElectricEquipment,
  Space Function Dwelling units general Elec Equip, !- Name
  Space Function Dwelling units general,  !- Zone or ZoneList or Space or SpaceList Name
  NECB-G-Electric-Equipment,              !- Schedule Name
  Watts/Area,                             !- Design Level Calculation Method
  ,                                       !- Design Level {W}
  5.00181710813649,                       !- Watts per Floor Area {W/m2}
  ,                                       !- Watts per Person {W/person}
  ,                                       !- Fraction Latent
  0.5,                                    !- Fraction Radiant
  ,                                       !- Fraction Lost
  General;                                !- End-Use Subcategory

Schedule:Day:Interval,
  NECB-G-Electric-Equipment Sun|Hol Day,  !- Name
  Fractional,                             !- Schedule Type Limits Name
  No,                                     !- Interpolate to Timestep
  01:00,                                  !- Time 1 {hh:mm}
  0.3,                                    !- Value Until Time 1
  07:00,                                  !- Time 2 {hh:mm}
  0.2,                                    !- Value Until Time 2
  09:00,                                  !- Time 3 {hh:mm}
  0.8,                                    !- Value Until Time 3
  16:00,                                  !- Time 4 {hh:mm}
  0.4,                                    !- Value Until Time 4
  17:00,                                  !- Time 5 {hh:mm}
  0.5,                                    !- Value Until Time 5
  18:00,                                  !- Time 6 {hh:mm}
  0.2,                                    !- Value Until Time 6
  20:00,                                  !- Time 7 {hh:mm}
  0.9,                                    !- Value Until Time 7
  21:00,                                  !- Time 8 {hh:mm}
  0.7,                                    !- Value Until Time 8
  24:00,                                  !- Time 9 {hh:mm}
  0.5;                                    !- Value Until Time 9

Schedule:Day:Interval,
  NECB-G-Electric-Equipment Default|Wkdy Day, !- Name
  Fractional,                             !- Schedule Type Limits Name
  No,                                     !- Interpolate to Timestep
  01:00,                                  !- Time 1 {hh:mm}
  0.3,                                    !- Value Until Time 1
  07:00,                                  !- Time 2 {hh:mm}
  0.2,                                    !- Value Until Time 2
  09:00,                                  !- Time 3 {hh:mm}
  0.8,                                    !- Value Until Time 3
  16:00,                                  !- Time 4 {hh:mm}
  0.4,                                    !- Value Until Time 4
  17:00,                                  !- Time 5 {hh:mm}
  0.5,                                    !- Value Until Time 5
  18:00,                                  !- Time 6 {hh:mm}
  0.2,                                    !- Value Until Time 6
  20:00,                                  !- Time 7 {hh:mm}
  0.9,                                    !- Value Until Time 7
  21:00,                                  !- Time 8 {hh:mm}
  0.7,                                    !- Value Until Time 8
  24:00,                                  !- Time 9 {hh:mm}
  0.5;                                    !- Value Until Time 9

Schedule:Day:Interval,
  NECB-G-Electric-Equipment Sat Day,      !- Name
  Fractional,                             !- Schedule Type Limits Name
  No,                                     !- Interpolate to Timestep
  01:00,                                  !- Time 1 {hh:mm}
  0.3,                                    !- Value Until Time 1
  07:00,                                  !- Time 2 {hh:mm}
  0.2,                                    !- Value Until Time 2
  09:00,                                  !- Time 3 {hh:mm}
  0.8,                                    !- Value Until Time 3
  16:00,                                  !- Time 4 {hh:mm}
  0.4,                                    !- Value Until Time 4
  17:00,                                  !- Time 5 {hh:mm}
  0.5,                                    !- Value Until Time 5
  18:00,                                  !- Time 6 {hh:mm}
  0.2,                                    !- Value Until Time 6
  20:00,                                  !- Time 7 {hh:mm}
  0.9,                                    !- Value Until Time 7
  21:00,                                  !- Time 8 {hh:mm}
  0.7,                                    !- Value Until Time 8
  24:00,                                  !- Time 9 {hh:mm}
  0.5;                                    !- Value Until Time 9

Schedule:Week:Daily,
  NECB-G-Electric-Equipment Week Rule - Jan1-Dec31, !- Name
  NECB-G-Electric-Equipment Sun|Hol Day,  !- Sunday Schedule:Day Name
  NECB-G-Electric-Equipment Default|Wkdy Day, !- Monday Schedule:Day Name
  NECB-G-Electric-Equipment Default|Wkdy Day, !- Tuesday Schedule:Day Name
  NECB-G-Electric-Equipment Default|Wkdy Day, !- Wednesday Schedule:Day Name
  NECB-G-Electric-Equipment Default|Wkdy Day, !- Thursday Schedule:Day Name
  NECB-G-Electric-Equipment Default|Wkdy Day, !- Friday Schedule:Day Name
  NECB-G-Electric-Equipment Sat Day,      !- Saturday Schedule:Day Name
  NECB-G-Electric-Equipment Default,      !- Holiday Schedule:Day Name
  NECB-G-Electric-Equipment Default,      !- SummerDesignDay Schedule:Day Name
  NECB-G-Electric-Equipment Default,      !- WinterDesignDay Schedule:Day Name
  NECB-G-Electric-Equipment Default,      !- CustomDay1 Schedule:Day Name
  NECB-G-Electric-Equipment Default;      !- CustomDay2 Schedule:Day Name

Schedule:Year,
  NECB-G-Electric-Equipment,              !- Name
  Fractional,                             !- Schedule Type Limits Name
  NECB-G-Electric-Equipment Week Rule - Jan1-Dec31, !- Schedule:Week Name 1
  1,                                      !- Start Month 1
  1,                                      !- Start Day 1
  12,                                     !- End Month 1
  31;                                     !- End Day 1

Schedule:Day:Interval,
  NECB-G-Electric-Equipment Default,      !- Name
  Fractional,                             !- Schedule Type Limits Name
  No,                                     !- Interpolate to Timestep
  01:00,                                  !- Time 1 {hh:mm}
  0.3,                                    !- Value Until Time 1
  07:00,                                  !- Time 2 {hh:mm}
  0.2,                                    !- Value Until Time 2
  09:00,                                  !- Time 3 {hh:mm}
  0.8,                                    !- Value Until Time 3
  16:00,                                  !- Time 4 {hh:mm}
  0.4,                                    !- Value Until Time 4
  17:00,                                  !- Time 5 {hh:mm}
  0.5,                                    !- Value Until Time 5
  18:00,                                  !- Time 6 {hh:mm}
  0.2,                                    !- Value Until Time 6
  20:00,                                  !- Time 7 {hh:mm}
  0.9,                                    !- Value Until Time 7
  21:00,                                  !- Time 8 {hh:mm}
  0.7,                                    !- Value Until Time 8
  24:00,                                  !- Time 9 {hh:mm}
  0.5;                                    !- Value Until Time 9

BuildingSurface:Detailed,
  g Ceilin NEA,                           !- Name
  Ceiling,                                !- Surface Type
  BTAP-Int-Wall,                          !- Construction Name
  DU_BT=Space Function_ST=Dwelling units general_FL=Building Story 1_SCHG, !- Zone Name
  G NE Apartment,                         !- Space Name
  Adiabatic,                              !- Outside Boundary Condition
  ,                                       !- Outside Boundary Condition Object
  NoSun,                                  !- Sun Exposure
  NoWind,                                 !- Wind Exposure
  ,                                       !- View Factor to Ground
  ,                                       !- Number of Vertices
  11.581835, 0, 3.047851,                 !- X,Y,Z Vertex 1 {m}
  11.581835, 7.619628, 3.047851,          !- X,Y,Z Vertex 2 {m}
  0, 7.619628, 3.047851,                  !- X,Y,Z Vertex 3 {m}
  0, 0, 3.047851;                         !- X,Y,Z Vertex 4 {m}

BuildingSurface:Detailed,
  g EIWALL N2A Reversed,                  !- Name
  Wall,                                   !- Surface Type
  BTAP-Int-Wall,                          !- Construction Name
  DU_BT=Space Function_ST=Dwelling units general_FL=Building Story 1_SCHG, !- Zone Name
  G NE Apartment,                         !- Space Name
  Surface,                                !- Outside Boundary Condition
  g EIWALL N1A,                           !- Outside Boundary Condition Object
  NoSun,                                  !- Sun Exposure
  NoWind,                                 !- Wind Exposure
  ,                                       !- View Factor to Ground
  ,                                       !- Number of Vertices
  0, 7.619628, 3.047851,                  !- X,Y,Z Vertex 1 {m}
  0, 7.619628, 0,                         !- X,Y,Z Vertex 2 {m}
  0, 0, 0,                                !- X,Y,Z Vertex 3 {m}
  0, 0, 3.047851;                         !- X,Y,Z Vertex 4 {m}

BuildingSurface:Detailed,
  g EWall NEA,                            !- Name
  Wall,                                   !- Surface Type
  BTAP-Ext-Wall-Mass:U-0.29,              !- Construction Name
  DU_BT=Space Function_ST=Dwelling units general_FL=Building Story 1_SCHG, !- Zone Name
  G NE Apartment,                         !- Space Name
  Outdoors,                               !- Outside Boundary Condition
  ,                                       !- Outside Boundary Condition Object
  SunExposed,                             !- Sun Exposure
  WindExposed,                            !- Wind Exposure
  ,                                       !- View Factor to Ground
  ,                                       !- Number of Vertices
  11.581835, 0, 3.047851,                 !- X,Y,Z Vertex 1 {m}
  11.581835, 0, 0,                        !- X,Y,Z Vertex 2 {m}
  11.581835, 7.619628, 0,                 !- X,Y,Z Vertex 3 {m}
  11.581835, 7.619628, 3.047851;          !- X,Y,Z Vertex 4 {m}

FenestrationSurface:Detailed,
  g EWall NEA_FixedWindow,                !- Name
  Window,                                 !- Surface Type
  BTAP-Ext-FixedWindow:U=0.280 SHGC=0.600, !- Construction Name
  g EWall NEA,                            !- Building Surface Name
  ,                                       !- Outside Boundary Condition Object
  ,                                       !- View Factor to Ground
  ,                                       !- Frame and Divider Name
  ,                                       !- Multiplier
  ,                                       !- Number of Vertices
  11.581835, 0.0254, 1.78374635793937,    !- X,Y,Z Vertex 1 {m}
  11.581835, 0.0254, 0.762,               !- X,Y,Z Vertex 2 {m}
  11.581835, 7.594228, 0.762,             !- X,Y,Z Vertex 3 {m}
  11.581835, 7.594228, 1.78374635793937;  !- X,Y,Z Vertex 4 {m}

BuildingSurface:Detailed,
  g GFloor NEA,                           !- Name
  Floor,                                  !- Surface Type
  BTAP-Grnd-Floor-Mass:U-0.757_std,       !- Construction Name
  DU_BT=Space Function_ST=Dwelling units general_FL=Building Story 1_SCHG, !- Zone Name
  G NE Apartment,                         !- Space Name
  Foundation,                             !- Outside Boundary Condition
  Bldg Kiva Foundation,                   !- Outside Boundary Condition Object
  NoSun,                                  !- Sun Exposure
  NoWind,                                 !- Wind Exposure
  ,                                       !- View Factor to Ground
  ,                                       !- Number of Vertices
  11.581835, 7.619628, 0,                 !- X,Y,Z Vertex 1 {m}
  11.581835, 0, 0,                        !- X,Y,Z Vertex 2 {m}
  0, 0, 0,                                !- X,Y,Z Vertex 3 {m}
  0, 7.619628, 0;                         !- X,Y,Z Vertex 4 {m}

SurfaceProperty:ExposedFoundationPerimeter,
  g GFloor NEA,                           !- Surface Name
  TotalExposedPerimeter,                  !- Exposed Perimeter Calculation Method
  19.201463,                              !- Total Exposed Perimeter {m}
  ;                                       !- Exposed Perimeter Fraction {dimensionless}

BuildingSurface:Detailed,
  g NWall NEA,                            !- Name
  Wall,                                   !- Surface Type
  BTAP-Ext-Wall-Mass:U-0.29,              !- Construction Name
  DU_BT=Space Function_ST=Dwelling units general_FL=Building Story 1_SCHG, !- Zone Name
  G NE Apartment,                         !- Space Name
  Outdoors,                               !- Outside Boundary Condition
  ,                                       !- Outside Boundary Condition Object
  SunExposed,                             !- Sun Exposure
  WindExposed,                            !- Wind Exposure
  ,                                       !- View Factor to Ground
  ,                                       !- Number of Vertices
  11.581835, 7.619628, 3.047851,          !- X,Y,Z Vertex 1 {m}
  11.581835, 7.619628, 0,                 !- X,Y,Z Vertex 2 {m}
  -1.63304301636913e-07, 7.619628, 0,     !- X,Y,Z Vertex 3 {m}
  0, 7.619628, 3.047851;                  !- X,Y,Z Vertex 4 {m}

FenestrationSurface:Detailed,
  g NWall NEA_FixedWindow,                !- Name
  Window,                                 !- Surface Type
  BTAP-Ext-FixedWindow:U=0.280 SHGC=0.600, !- Construction Name
  g NWall NEA,                            !- Building Surface Name
  ,                                       !- Outside Boundary Condition Object
  ,                                       !- View Factor to Ground
  ,                                       !- Frame and Divider Name
  ,                                       !- Multiplier
  ,                                       !- Number of Vertices
  11.556435, 7.619628, 1.78140567858849,  !- X,Y,Z Vertex 1 {m}
  11.556435, 7.619628, 0.762,             !- X,Y,Z Vertex 2 {m}
  0.0253998366956996, 7.619628, 0.762,    !- X,Y,Z Vertex 3 {m}
  0.0253998366956996, 7.619628, 1.78140567858849; !- X,Y,Z Vertex 4 {m}

BuildingSurface:Detailed,
  g SIWall NEA,                           !- Name
  Wall,                                   !- Surface Type
  BTAP-Int-Wall,                          !- Construction Name
  DU_BT=Space Function_ST=Dwelling units general_FL=Building Story 1_SCHG, !- Zone Name
  G NE Apartment,                         !- Space Name
  Surface,                                !- Outside Boundary Condition
  g SIWall NEA Reversed,                  !- Outside Boundary Condition Object
  NoSun,                                  !- Sun Exposure
  NoWind,                                 !- Wind Exposure
  ,                                       !- View Factor to Ground
  ,                                       !- Number of Vertices
  0, 0, 3.047851,                         !- X,Y,Z Vertex 1 {m}
  -1.63304301636913e-07, 0, 0,            !- X,Y,Z Vertex 2 {m}
  11.581835, 0, 0,                        !- X,Y,Z Vertex 3 {m}
  11.581835, 0, 3.047851;                 !- X,Y,Z Vertex 4 {m}

ZoneInfiltration:DesignFlowRate,
  G NE Apartment Infiltration,            !- Name
  G NE Apartment,                         !- Zone or ZoneList or Space or SpaceList Name
  Always On Discrete,                     !- Schedule Name
  Flow/ExteriorArea,                      !- Design Flow Rate Calculation Method
  ,                                       !- Design Flow Rate {m3/s}
  ,                                       !- Flow Rate per Floor Area {m3/s-m2}
  0.00447586595596712,                    !- Flow Rate per Exterior Surface Area {m3/s-m2}
  ,                                       !- Air Changes per Hour {1/hr}
  0,                                      !- Constant Term Coefficient
  0,                                      !- Temperature Term Coefficient
  0.224,                                  !- Velocity Term Coefficient
  0;                                      !- Velocity Squared Term Coefficient

ZoneControl:Thermostat,
  DU_BT=Space Function_ST=Dwelling units general_FL=Building Story 1_SCHG Thermostat, !- Name
  DU_BT=Space Function_ST=Dwelling units general_FL=Building Story 1_SCHG, !- Zone or ZoneList Name
  DU_BT=Space Function_ST=Dwelling units general_FL=Building Story 1_SCHG Thermostat Schedule, !- Control Type Schedule Name
  ThermostatSetpoint:DualSetpoint,        !- Control 1 Object Type
  Space Function Dwelling units general Thermostat 37, !- Control 1 Name
  ,                                       !- Control 2 Object Type
  ,                                       !- Control 2 Name
  ,                                       !- Control 3 Object Type
  ,                                       !- Control 3 Name
  ,                                       !- Control 4 Object Type
  ,                                       !- Control 4 Name
  0;                                      !- Temperature Difference Between Cutout And Setpoint {deltaC}

Schedule:Compact,
  DU_BT=Space Function_ST=Dwelling units general_FL=Building Story 1_SCHG Thermostat Schedule, !- Name
  DU_BT=Space Function_ST=Dwelling units general_FL=Building Story 1_SCHG Thermostat Schedule Type Limits, !- Schedule Type Limits Name
  Through: 12/31,                         !- Field 1
  For: AllDays,                           !- Field 2
  Until: 24:00,                           !- Field 3
  4;                                      !- Field 4

ScheduleTypeLimits,
  DU_BT=Space Function_ST=Dwelling units general_FL=Building Story 1_SCHG Thermostat Schedule Type Limits, !- Name
  0,                                      !- Lower Limit Value {BasedOnField A3}
  4,                                      !- Upper Limit Value {BasedOnField A3}
  DISCRETE;                               !- Numeric Type

ThermostatSetpoint:DualSetpoint,
  Space Function Dwelling units general Thermostat 37, !- Name
  NECB-G-Thermostat Setpoint-Heating,     !- Heating Setpoint Temperature Schedule Name
  NECB-G-Thermostat Setpoint-Cooling;     !- Cooling Setpoint Temperature Schedule Name

ScheduleTypeLimits,
  Temperature,                            !- Name
  ,                                       !- Lower Limit Value {BasedOnField A3}
  ,                                       !- Upper Limit Value {BasedOnField A3}
  Continuous,                             !- Numeric Type
  temperature;                            !- Unit Type

Schedule:Day:Interval,
  NECB-G-Thermostat Setpoint-Heating Sun|Hol Day, !- Name
  Temperature,                            !- Schedule Type Limits Name
  No,                                     !- Interpolate to Timestep
  01:00,                                  !- Time 1 {hh:mm}
  22,                                     !- Value Until Time 1
  07:00,                                  !- Time 2 {hh:mm}
  18,                                     !- Value Until Time 2
  08:00,                                  !- Time 3 {hh:mm}
  20,                                     !- Value Until Time 3
  24:00,                                  !- Time 4 {hh:mm}
  22;                                     !- Value Until Time 4

Schedule:Day:Interval,
  NECB-G-Thermostat Setpoint-Heating Default|Wkdy Day, !- Name
  Temperature,                            !- Schedule Type Limits Name
  No,                                     !- Interpolate to Timestep
  01:00,                                  !- Time 1 {hh:mm}
  22,                                     !- Value Until Time 1
  07:00,                                  !- Time 2 {hh:mm}
  18,                                     !- Value Until Time 2
  08:00,                                  !- Time 3 {hh:mm}
  20,                                     !- Value Until Time 3
  24:00,                                  !- Time 4 {hh:mm}
  22;                                     !- Value Until Time 4

Schedule:Day:Interval,
  NECB-G-Thermostat Setpoint-Heating Sat Day, !- Name
  Temperature,                            !- Schedule Type Limits Name
  No,                                     !- Interpolate to Timestep
  01:00,                                  !- Time 1 {hh:mm}
  22,                                     !- Value Until Time 1
  07:00,                                  !- Time 2 {hh:mm}
  18,                                     !- Value Until Time 2
  08:00,                                  !- Time 3 {hh:mm}
  20,                                     !- Value Until Time 3
  24:00,                                  !- Time 4 {hh:mm}
  22;                                     !- Value Until Time 4

Schedule:Week:Daily,
  NECB-G-Thermostat Setpoint-Heating Week Rule - Jan1-Dec31, !- Name
  NECB-G-Thermostat Setpoint-Heating Sun|Hol Day, !- Sunday Schedule:Day Name
  NECB-G-Thermostat Setpoint-Heating Default|Wkdy Day, !- Monday Schedule:Day Name
  NECB-G-Thermostat Setpoint-Heating Default|Wkdy Day, !- Tuesday Schedule:Day Name
  NECB-G-Thermostat Setpoint-Heating Default|Wkdy Day, !- Wednesday Schedule:Day Name
  NECB-G-Thermostat Setpoint-Heating Default|Wkdy Day, !- Thursday Schedule:Day Name
  NECB-G-Thermostat Setpoint-Heating Default|Wkdy Day, !- Friday Schedule:Day Name
  NECB-G-Thermostat Setpoint-Heating Sat Day, !- Saturday Schedule:Day Name
  NECB-G-Thermostat Setpoint-Heating Default, !- Holiday Schedule:Day Name
  NECB-G-Thermostat Setpoint-Heating Default, !- SummerDesignDay Schedule:Day Name
  NECB-G-Thermostat Setpoint-Heating Default, !- WinterDesignDay Schedule:Day Name
  NECB-G-Thermostat Setpoint-Heating Default, !- CustomDay1 Schedule:Day Name
  NECB-G-Thermostat Setpoint-Heating Default; !- CustomDay2 Schedule:Day Name

Schedule:Year,
  NECB-G-Thermostat Setpoint-Heating,     !- Name
  Temperature,                            !- Schedule Type Limits Name
  NECB-G-Thermostat Setpoint-Heating Week Rule - Jan1-Dec31, !- Schedule:Week Name 1
  1,                                      !- Start Month 1
  1,                                      !- Start Day 1
  12,                                     !- End Month 1
  31;                                     !- End Day 1

Schedule:Day:Interval,
  NECB-G-Thermostat Setpoint-Heating Default, !- Name
  Temperature,                            !- Schedule Type Limits Name
  No,                                     !- Interpolate to Timestep
  01:00,                                  !- Time 1 {hh:mm}
  22,                                     !- Value Until Time 1
  07:00,                                  !- Time 2 {hh:mm}
  18,                                     !- Value Until Time 2
  08:00,                                  !- Time 3 {hh:mm}
  20,                                     !- Value Until Time 3
  24:00,                                  !- Time 4 {hh:mm}
  22;                                     !- Value Until Time 4

Schedule:Day:Interval,
  NECB-G-Thermostat Setpoint-Cooling Sun|Hol Day, !- Name
  Temperature,                            !- Schedule Type Limits Name
  No,                                     !- Interpolate to Timestep
  24:00,                                  !- Time 1 {hh:mm}
  24;                                     !- Value Until Time 1

Schedule:Day:Interval,
  NECB-G-Thermostat Setpoint-Cooling Default|Wkdy Day, !- Name
  Temperature,                            !- Schedule Type Limits Name
  No,                                     !- Interpolate to Timestep
  24:00,                                  !- Time 1 {hh:mm}
  24;                                     !- Value Until Time 1

Schedule:Day:Interval,
  NECB-G-Thermostat Setpoint-Cooling Sat Day, !- Name
  Temperature,                            !- Schedule Type Limits Name
  No,                                     !- Interpolate to Timestep
  24:00,                                  !- Time 1 {hh:mm}
  24;                                     !- Value Until Time 1

Schedule:Week:Daily,
  NECB-G-Thermostat Setpoint-Cooling Week Rule - Jan1-Dec31, !- Name
  NECB-G-Thermostat Setpoint-Cooling Sun|Hol Day, !- Sunday Schedule:Day Name
  NECB-G-Thermostat Setpoint-Cooling Default|Wkdy Day, !- Monday Schedule:Day Name
  NECB-G-Thermostat Setpoint-Cooling Default|Wkdy Day, !- Tuesday Schedule:Day Name
  NECB-G-Thermostat Setpoint-Cooling Default|Wkdy Day, !- Wednesday Schedule:Day Name
  NECB-G-Thermostat Setpoint-Cooling Default|Wkdy Day, !- Thursday Schedule:Day Name
  NECB-G-Thermostat Setpoint-Cooling Default|Wkdy Day, !- Friday Schedule:Day Name
  NECB-G-Thermostat Setpoint-Cooling Sat Day, !- Saturday Schedule:Day Name
  NECB-G-Thermostat Setpoint-Cooling Default, !- Holiday Schedule:Day Name
  NECB-G-Thermostat Setpoint-Cooling Default, !- SummerDesignDay Schedule:Day Name
  NECB-G-Thermostat Setpoint-Cooling Default, !- WinterDesignDay Schedule:Day Name
  NECB-G-Thermostat Setpoint-Cooling Default, !- CustomDay1 Schedule:Day Name
  NECB-G-Thermostat Setpoint-Cooling Default; !- CustomDay2 Schedule:Day Name

Schedule:Year,
  NECB-G-Thermostat Setpoint-Cooling,     !- Name
  Temperature,                            !- Schedule Type Limits Name
  NECB-G-Thermostat Setpoint-Cooling Week Rule - Jan1-Dec31, !- Schedule:Week Name 1
  1,                                      !- Start Month 1
  1,                                      !- Start Day 1
  12,                                     !- End Month 1
  31;                                     !- End Day 1

Schedule:Day:Interval,
  NECB-G-Thermostat Setpoint-Cooling Default, !- Name
  Temperature,                            !- Schedule Type Limits Name
  No,                                     !- Interpolate to Timestep
  24:00,                                  !- Time 1 {hh:mm}
  24;                                     !- Value Until Time 1

ZoneHVAC:EquipmentConnections,
  DU_BT=Space Function_ST=Dwelling units general_FL=Building Story 1_SCHG, !- Zone Name
  DU_BT=Space Function_ST=Dwelling units general_FL=Building Story 1_SCHG Equipment List, !- Zone Conditioning Equipment List Name
  DU_BT=Space Function_ST=Dwelling units general_FL=Building Story 1_SCHG Inlet Node List, !- Zone Air Inlet Node or NodeList Name
  DU_BT=Space Function_ST=Dwelling units general_FL=Building Story 1_SCHG Exhaust Node List, !- Zone Air Exhaust Node or NodeList Name
  DU_BT=Space Function_ST=Dwelling units general_FL=Building Story 1_SCHG Zone Air Node, !- Zone Air Node Name
  DU_BT=Space Function_ST=Dwelling units general_FL=Building Story 1_SCHG Return Node List; !- Zone Return Air Node or NodeList Name

NodeList,
  DU_BT=Space Function_ST=Dwelling units general_FL=Building Story 1_SCHG Inlet Node List, !- Name
  Air Terminal Single Duct Constant Volume No Reheat 1 Outlet Air Node, !- Node Name 1
  ZoneHVACPackagedTerminalAirConditioner Outlet Air Node; !- Node Name 2

NodeList,
  DU_BT=Space Function_ST=Dwelling units general_FL=Building Story 1_SCHG Exhaust Node List, !- Name
  ZoneHVACPackagedTerminalAirConditioner Inlet Air Node; !- Node Name 1

NodeList,
  DU_BT=Space Function_ST=Dwelling units general_FL=Building Story 1_SCHG Return Node List, !- Name
  DU_BT=Space Function_ST=Dwelling units general_FL=Building Story 1_SCHG Return Air Node; !- Node Name 1

AirTerminal:SingleDuct:ConstantVolume:NoReheat,
  Air Terminal Single Duct Constant Volume No Reheat 1, !- Name
  Always On Discrete,                     !- Availability Schedule Name
  Air Terminal Single Duct Constant Volume No Reheat 1 Inlet Air Node, !- Air Inlet Node Name
  Air Terminal Single Duct Constant Volume No Reheat 1 Outlet Air Node, !- Air Outlet Node Name
  AutoSize;                               !- Maximum Air Flow Rate {m3/s}

ZoneHVAC:AirDistributionUnit,
  ADU Air Terminal Single Duct Constant Volume No Reheat 1, !- Name
  Air Terminal Single Duct Constant Volume No Reheat 1 Outlet Air Node, !- Air Distribution Unit Outlet Node Name
  AirTerminal:SingleDuct:ConstantVolume:NoReheat, !- Air Terminal Object Type
  Air Terminal Single Duct Constant Volume No Reheat 1; !- Air Terminal Name

ZoneHVAC:PackagedTerminalAirConditioner,
  ZoneHVACPackagedTerminalAirConditioner, !- Name
  Always On Discrete,                     !- Availability Schedule Name
  ZoneHVACPackagedTerminalAirConditioner Inlet Air Node, !- Air Inlet Node Name
  ZoneHVACPackagedTerminalAirConditioner Outlet Air Node, !- Air Outlet Node Name
  OutdoorAir:Mixer,                       !- Outdoor Air Mixer Object Type
  ZoneHVACPackagedTerminalAirConditioner OA Mixer, !- Outdoor Air Mixer Name
  Autosize,                               !- Cooling Supply Air Flow Rate {m3/s}
  Autosize,                               !- Heating Supply Air Flow Rate {m3/s}
  Autosize,                               !- No Load Supply Air Flow Rate {m3/s}
  Yes,                                    !- No Load Supply Air Flow Rate Control Set To Low Speed
  1e-06,                                  !- Cooling Outdoor Air Flow Rate {m3/s}
  1e-06,                                  !- Heating Outdoor Air Flow Rate {m3/s}
  1e-06,                                  !- No Load Outdoor Air Flow Rate {m3/s}
  Fan:OnOff,                              !- Supply Air Fan Object Type
  FanOnOff,                               !- Supply Air Fan Name
  Coil:Heating:Electric,                  !- Heating Coil Object Type
  CoilHeatingElectric 1,                  !- Heating Coil Name
  Coil:Cooling:DX:SingleSpeed,            !- Cooling Coil Object Type
  CoilCoolingDXSingleSpeed_PTAC 21kBtu/hr 9.5EER, !- Cooling Coil Name
  DrawThrough,                            !- Fan Placement
  Always Off Discrete;                    !- Supply Air Fan Operating Mode Schedule Name

Schedule:Constant,
  Always On Discrete,                     !- Name
  OnOff 1,                                !- Schedule Type Limits Name
  1;                                      !- Hourly Value

OutdoorAir:Mixer,
  ZoneHVACPackagedTerminalAirConditioner OA Mixer, !- Name
  ZoneHVACPackagedTerminalAirConditioner Mixed Air Node, !- Mixed Air Node Name
  ZoneHVACPackagedTerminalAirConditioner OA Node, !- Outdoor Air Stream Node Name
  ZoneHVACPackagedTerminalAirConditioner Relief Air Node, !- Relief Air Stream Node Name
  ZoneHVACPackagedTerminalAirConditioner Inlet Air Node; !- Return Air Stream Node Name

OutdoorAir:NodeList,
  ZoneHVACPackagedTerminalAirConditioner OA Node; !- Node or NodeList Name 1

Fan:OnOff,
  FanOnOff,                               !- Name
  Always On Discrete,                     !- Availability Schedule Name
  0.39975,                                !- Fan Total Efficiency
  331.2882503,                            !- Pressure Rise {Pa}
  Autosize,                               !- Maximum Flow Rate {m3/s}
  0.615,                                  !- Motor Efficiency
  1,                                      !- Motor In Airstream Fraction
  ZoneHVACPackagedTerminalAirConditioner Heating Coil Outlet Node, !- Air Inlet Node Name
  ZoneHVACPackagedTerminalAirConditioner Outlet Air Node, !- Air Outlet Node Name
  Fan On Off Power Curve,                 !- Fan Power Ratio Function of Speed Ratio Curve Name
  Fan On Off Efficiency Curve,            !- Fan Efficiency Ratio Function of Speed Ratio Curve Name
  General;                                !- End-Use Subcategory

Curve:Exponent,
  Fan On Off Power Curve,                 !- Name
  1,                                      !- Coefficient1 Constant
  0,                                      !- Coefficient2 Constant
  0,                                      !- Coefficient3 Constant
  0,                                      !- Minimum Value of x {BasedOnField A2}
  1;                                      !- Maximum Value of x {BasedOnField A2}

Curve:Cubic,
  Fan On Off Efficiency Curve,            !- Name
  1,                                      !- Coefficient1 Constant
  0,                                      !- Coefficient2 x
  0,                                      !- Coefficient3 x**2
  0,                                      !- Coefficient4 x**3
  0,                                      !- Minimum Value of x {BasedOnField A2}
  1;                                      !- Maximum Value of x {BasedOnField A2}

Coil:Heating:Electric,
  CoilHeatingElectric 1,                  !- Name
  Always Off Discrete,                    !- Availability Schedule Name
  1,                                      !- Efficiency
  Autosize,                               !- Nominal Capacity {W}
  ZoneHVACPackagedTerminalAirConditioner Cooling Coil Outlet Node, !- Air Inlet Node Name
  ZoneHVACPackagedTerminalAirConditioner Heating Coil Outlet Node; !- Air Outlet Node Name

Schedule:Constant,
  Always Off Discrete,                    !- Name
  OnOff 2,                                !- Schedule Type Limits Name
  0;                                      !- Hourly Value

Curve:Biquadratic,
  DXCOOL-NECB2011-REF-CAPFT,              !- Name
  0.867905,                               !- Coefficient1 Constant
  0.0142459,                              !- Coefficient2 x
  0.00055436,                             !- Coefficient3 x**2
  -0.0075575,                             !- Coefficient4 y
  3.3e-05,                                !- Coefficient5 y**2
  -0.0001918,                             !- Coefficient6 x*y
  13,                                     !- Minimum Value of x {BasedOnField A2}
  24,                                     !- Maximum Value of x {BasedOnField A2}
  24,                                     !- Minimum Value of y {BasedOnField A3}
  46;                                     !- Maximum Value of y {BasedOnField A3}

Curve:Quadratic,
  DXCOOL-NECB2011-REF-CAPFFLOW,           !- Name
  0.8,                                    !- Coefficient1 Constant
  0.2,                                    !- Coefficient2 x
  0,                                      !- Coefficient3 x**2
  0.5,                                    !- Minimum Value of x {BasedOnField A2}
  1.5;                                    !- Maximum Value of x {BasedOnField A2}

Curve:Biquadratic,
  DXCOOL-NECB2011-REF-COOLEIRFT,          !- Name
  0.1141714,                              !- Coefficient1 Constant
  0.02818224,                             !- Coefficient2 x
  -0.0004199,                             !- Coefficient3 x**2
  0.02141082,                             !- Coefficient4 y
  0.000161028,                            !- Coefficient5 y**2
  -0.000679104,                           !- Coefficient6 x*y
  13,                                     !- Minimum Value of x {BasedOnField A2}
  24,                                     !- Maximum Value of x {BasedOnField A2}
  24,                                     !- Minimum Value of y {BasedOnField A3}
  46;                                     !- Maximum Value of y {BasedOnField A3}

Curve:Quadratic,
  DXCOOL-NECB2011-REF-COOLEIRFFLOW,       !- Name
  1.1552,                                 !- Coefficient1 Constant
  -0.1808,                                !- Coefficient2 x
  0.0256,                                 !- Coefficient3 x**2
  0.5,                                    !- Minimum Value of x {BasedOnField A2}
  1.5;                                    !- Maximum Value of x {BasedOnField A2}

Curve:Cubic,
  DXCOOL-NECB2011-REF-COOLPLFFPLR,        !- Name
  0.0277,                                 !- Coefficient1 Constant
  4.9151,                                 !- Coefficient2 x
  -8.184,                                 !- Coefficient3 x**2
  4.2702,                                 !- Coefficient4 x**3
  0.7,                                    !- Minimum Value of x {BasedOnField A2}
  1;                                      !- Maximum Value of x {BasedOnField A2}

Coil:Cooling:DX:SingleSpeed,
  CoilCoolingDXSingleSpeed_PTAC 21kBtu/hr 9.5EER, !- Name
  Always On Discrete,                     !- Availability Schedule Name
  Autosize,                               !- Gross Rated Total Cooling Capacity {W}
  Autosize,                               !- Gross Rated Sensible Heat Ratio
  3.30019905299558,                       !- Gross Rated Cooling COP {W/W}
  Autosize,                               !- Rated Air Flow Rate {m3/s}
  773.3,                                  !- Rated Evaporator Fan Power Per Volume Flow Rate 2017 {W/(m3/s)}
  934.4,                                  !- Rated Evaporator Fan Power Per Volume Flow Rate 2023 {W/(m3/s)}
  ZoneHVACPackagedTerminalAirConditioner Mixed Air Node, !- Air Inlet Node Name
  ZoneHVACPackagedTerminalAirConditioner Cooling Coil Outlet Node, !- Air Outlet Node Name
  DXCOOL-NECB2011-REF-CAPFT,              !- Total Cooling Capacity Function of Temperature Curve Name
  DXCOOL-NECB2011-REF-CAPFFLOW,           !- Total Cooling Capacity Function of Flow Fraction Curve Name
  DXCOOL-NECB2011-REF-COOLEIRFT,          !- Energy Input Ratio Function of Temperature Curve Name
  DXCOOL-NECB2011-REF-COOLEIRFFLOW,       !- Energy Input Ratio Function of Flow Fraction Curve Name
  DXCOOL-NECB2011-REF-COOLPLFFPLR,        !- Part Load Fraction Correlation Curve Name
  -25,                                    !- Minimum Outdoor Dry-Bulb Temperature for Compressor Operation {C}
  0,                                      !- Nominal Time for Condensate Removal to Begin {s}
  0,                                      !- Ratio of Initial Moisture Evaporation Rate and Steady State Latent Capacity {dimensionless}
  0,                                      !- Maximum Cycling Rate {cycles/hr}
  0,                                      !- Latent Capacity Time Constant {s}
  ,                                       !- Condenser Air Inlet Node Name
  AirCooled,                              !- Condenser Type
  0.9,                                    !- Evaporative Condenser Effectiveness {dimensionless}
  Autosize,                               !- Evaporative Condenser Air Flow Rate {m3/s}
  Autosize,                               !- Evaporative Condenser Pump Rated Power Consumption {W}
  1e-06,                                  !- Crankcase Heater Capacity {W}
  ,                                       !- Crankcase Heater Capacity Function of Temperature Curve Name
  10,                                     !- Maximum Outdoor Dry-Bulb Temperature for Crankcase Heater Operation {C}
  ,                                       !- Supply Water Storage Tank Name
  ,                                       !- Condensate Collection Water Storage Tank Name
  0,                                      !- Basin Heater Capacity {W/K}
  2;                                      !- Basin Heater Setpoint Temperature {C}

ZoneHVAC:Baseboard:Convective:Electric,
  ZoneHVACBaseboardConvectiveElectric,    !- Name
  Always On Discrete,                     !- Availability Schedule Name
  ,                                       !- Heating Design Capacity Method
  Autosize,                               !- Heating Design Capacity {W}
  ,                                       !- Heating Design Capacity Per Floor Area {W/m2}
  ,                                       !- Fraction of Autosized Heating Design Capacity
  1;                                      !- Efficiency

ZoneHVAC:EquipmentList,
  DU_BT=Space Function_ST=Dwelling units general_FL=Building Story 1_SCHG Equipment List, !- Name
  SequentialLoad,                         !- Load Distribution Scheme
  ZoneHVAC:AirDistributionUnit,           !- Zone Equipment Object Type 1
  ADU Air Terminal Single Duct Constant Volume No Reheat 1, !- Zone Equipment Name 1
  1,                                      !- Zone Equipment Cooling Sequence 1
  1,                                      !- Zone Equipment Heating or No-Load Sequence 1
  ,                                       !- Zone Equipment Sequential Cooling Fraction Schedule Name 1
  ,                                       !- Zone Equipment Sequential Heating Fraction Schedule Name 1
  ZoneHVAC:PackagedTerminalAirConditioner, !- Zone Equipment Object Type 2
  ZoneHVACPackagedTerminalAirConditioner, !- Zone Equipment Name 2
  2,                                      !- Zone Equipment Cooling Sequence 2
  2,                                      !- Zone Equipment Heating or No-Load Sequence 2
  ,                                       !- Zone Equipment Sequential Cooling Fraction Schedule Name 2
  ,                                       !- Zone Equipment Sequential Heating Fraction Schedule Name 2
  ZoneHVAC:Baseboard:Convective:Electric, !- Zone Equipment Object Type 3
  ZoneHVACBaseboardConvectiveElectric,    !- Zone Equipment Name 3
  3,                                      !- Zone Equipment Cooling Sequence 3
  3,                                      !- Zone Equipment Heating or No-Load Sequence 3
  ,                                       !- Zone Equipment Sequential Cooling Fraction Schedule Name 3
  ;                                       !- Zone Equipment Sequential Heating Fraction Schedule Name 3

Sizing:Zone,
  DU_BT=Space Function_ST=Dwelling units general_FL=Building Story 1_SCHG, !- Zone or ZoneList Name
  TemperatureDifference,                  !- Zone Cooling Design Supply Air Temperature Input Method
  13,                                     !- Zone Cooling Design Supply Air Temperature {C}
  11,                                     !- Zone Cooling Design Supply Air Temperature Difference {deltaC}
  TemperatureDifference,                  !- Zone Heating Design Supply Air Temperature Input Method
  43,                                     !- Zone Heating Design Supply Air Temperature {C}
  21,                                     !- Zone Heating Design Supply Air Temperature Difference {deltaC}
  0.0085,                                 !- Zone Cooling Design Supply Air Humidity Ratio {kgWater/kgDryAir}
  0.008,                                  !- Zone Heating Design Supply Air Humidity Ratio {kgWater/kgDryAir}
  DU_BT=Space Function_ST=Dwelling units general_FL=Building Story 1_SCHG DSOA Space List, !- Design Specification Outdoor Air Object Name
  1.3,                                    !- Zone Heating Sizing Factor
  1.1,                                    !- Zone Cooling Sizing Factor
  DesignDay,                              !- Cooling Design Air Flow Method
  0,                                      !- Cooling Design Air Flow Rate {m3/s}
  0.000762,                               !- Cooling Minimum Air Flow per Zone Floor Area {m3/s-m2}
  0,                                      !- Cooling Minimum Air Flow {m3/s}
  0,                                      !- Cooling Minimum Air Flow Fraction
  DesignDay,                              !- Heating Design Air Flow Method
  0,                                      !- Heating Design Air Flow Rate {m3/s}
  0.002032,                               !- Heating Maximum Air Flow per Zone Floor Area {m3/s-m2}
  0.1415762,                              !- Heating Maximum Air Flow {m3/s}
  0.3,                                    !- Heating Maximum Air Flow Fraction
  ,                                       !- Design Specification Zone Air Distribution Object Name
  No,                                     !- Account for Dedicated Outdoor Air System
  ,                                       !- Dedicated Outdoor Air System Control Strategy
  ,                                       !- Dedicated Outdoor Air Low Setpoint Temperature for Design {C}
  ,                                       !- Dedicated Outdoor Air High Setpoint Temperature for Design {C}
  Sensible Load Only No Latent Load,      !- Zone Load Sizing Method
  HumidityRatioDifference,                !- Zone Latent Cooling Design Supply Air Humidity Ratio Input Method
  ,                                       !- Zone Dehumidification Design Supply Air Humidity Ratio {kgWater/kgDryAir}
  0.005,                                  !- Zone Cooling Design Supply Air Humidity Ratio Difference {kgWater/kgDryAir}
  HumidityRatioDifference,                !- Zone Latent Heating Design Supply Air Humidity Ratio Input Method
  ,                                       !- Zone Humidification Design Supply Air Humidity Ratio {kgWater/kgDryAir}
  0.005,                                  !- Zone Humidification Design Supply Air Humidity Ratio Difference {kgWater/kgDryAir}
  ,                                       !- Zone Humidistat Dehumidification Set Point Schedule Name
  ,                                       !- Zone Humidistat Humidification Set Point Schedule Name
  Coincident;                             !- Type of Space Sum to Use

Schedule:Day:Interval,
  Schedule Day 10,                        !- Name
  Fractional,                             !- Schedule Type Limits Name
  No,                                     !- Interpolate to Timestep
  24:00,                                  !- Time 1 {hh:mm}
  1;                                      !- Value Until Time 1

Schedule:Day:Interval,
  sys_1|doas|shr>none|sc>ccashp|sh>ccashp|ssf>cv|zh>b-e|zc>ptac|srf>none| Occ Sch Default, !- Name
  Fractional,                             !- Schedule Type Limits Name
  No,                                     !- Interpolate to Timestep
  24:00,                                  !- Time 1 {hh:mm}
  1;                                      !- Value Until Time 1

Schedule:Day:Interval,
  Schedule Day 9,                         !- Name
  Fractional,                             !- Schedule Type Limits Name
  No,                                     !- Interpolate to Timestep
  24:00,                                  !- Time 1 {hh:mm}
  1;                                      !- Value Until Time 1

Schedule:Week:Daily,
  sys_1|doas|shr>none|sc>ccashp|sh>ccashp|ssf>cv|zh>b-e|zc>ptac|srf>none| Occ Sch Week Rule - Jan1-Dec31, !- Name
  Schedule Day 10,                        !- Sunday Schedule:Day Name
  sys_1|doas|shr>none|sc>ccashp|sh>ccashp|ssf>cv|zh>b-e|zc>ptac|srf>none| Occ Sch Default, !- Monday Schedule:Day Name
  sys_1|doas|shr>none|sc>ccashp|sh>ccashp|ssf>cv|zh>b-e|zc>ptac|srf>none| Occ Sch Default, !- Tuesday Schedule:Day Name
  sys_1|doas|shr>none|sc>ccashp|sh>ccashp|ssf>cv|zh>b-e|zc>ptac|srf>none| Occ Sch Default, !- Wednesday Schedule:Day Name
  sys_1|doas|shr>none|sc>ccashp|sh>ccashp|ssf>cv|zh>b-e|zc>ptac|srf>none| Occ Sch Default, !- Thursday Schedule:Day Name
  sys_1|doas|shr>none|sc>ccashp|sh>ccashp|ssf>cv|zh>b-e|zc>ptac|srf>none| Occ Sch Default, !- Friday Schedule:Day Name
  Schedule Day 9,                         !- Saturday Schedule:Day Name
  sys_1|doas|shr>none|sc>ccashp|sh>ccashp|ssf>cv|zh>b-e|zc>ptac|srf>none| Occ Sch Default, !- Holiday Schedule:Day Name
  sys_1|doas|shr>none|sc>ccashp|sh>ccashp|ssf>cv|zh>b-e|zc>ptac|srf>none| Occ Sch Summer Design Day, !- SummerDesignDay Schedule:Day Name
  sys_1|doas|shr>none|sc>ccashp|sh>ccashp|ssf>cv|zh>b-e|zc>ptac|srf>none| Occ Sch Winter Design Day, !- WinterDesignDay Schedule:Day Name
  sys_1|doas|shr>none|sc>ccashp|sh>ccashp|ssf>cv|zh>b-e|zc>ptac|srf>none| Occ Sch Default, !- CustomDay1 Schedule:Day Name
  sys_1|doas|shr>none|sc>ccashp|sh>ccashp|ssf>cv|zh>b-e|zc>ptac|srf>none| Occ Sch Default; !- CustomDay2 Schedule:Day Name

Schedule:Year,
  sys_1|doas|shr>none|sc>ccashp|sh>ccashp|ssf>cv|zh>b-e|zc>ptac|srf>none| Occ Sch, !- Name
  Fractional,                             !- Schedule Type Limits Name
  sys_1|doas|shr>none|sc>ccashp|sh>ccashp|ssf>cv|zh>b-e|zc>ptac|srf>none| Occ Sch Week Rule - Jan1-Dec31, !- Schedule:Week Name 1
  1,                                      !- Start Month 1
  1,                                      !- Start Day 1
  12,                                     !- End Month 1
  31;                                     !- End Day 1

Schedule:Day:Interval,
  sys_1|doas|shr>none|sc>ccashp|sh>ccashp|ssf>cv|zh>b-e|zc>ptac|srf>none| Occ Sch Summer Design Day, !- Name
  Fractional,                             !- Schedule Type Limits Name
  No,                                     !- Interpolate to Timestep
  24:00,                                  !- Time 1 {hh:mm}
  1;                                      !- Value Until Time 1

Schedule:Day:Interval,
  sys_1|doas|shr>none|sc>ccashp|sh>ccashp|ssf>cv|zh>b-e|zc>ptac|srf>none| Occ Sch Winter Design Day, !- Name
  Fractional,                             !- Schedule Type Limits Name
  No,                                     !- Interpolate to Timestep
  24:00,                                  !- Time 1 {hh:mm}
  1;                                      !- Value Until Time 1

Controller:MechanicalVentilation,
  Controller Mechanical Ventilation 1,    !- Name
  sys_1|doas|shr>none|sc>ccashp|sh>ccashp|ssf>cv|zh>b-e|zc>ptac|srf>none| Occ Sch, !- Availability Schedule Name
  No,                                     !- Demand Controlled Ventilation
  ZoneSum,                                !- System Outdoor Air Method
  ,                                       !- Zone Maximum Outdoor Air Fraction {dimensionless}
  DU_BT=Space Function_ST=Dwelling units general_FL=Building Story 1_SCHG, !- Zone or ZoneList Name 1
  Space Function Dwelling units general Ventilation, !- Design Specification Outdoor Air Object Name 1
  ,                                       !- Design Specification Zone Air Distribution Object Name 1
  DU_BT=Space Function_ST=Dwelling units general_FL=Building Story 1_SCHG 10, !- Zone or ZoneList Name 2
  Space Function Dwelling units general Ventilation, !- Design Specification Outdoor Air Object Name 2
  ,                                       !- Design Specification Zone Air Distribution Object Name 2
  DU_BT=Space Function_ST=Dwelling units general_FL=Building Story 1_SCHG 11, !- Zone or ZoneList Name 3
  Space Function Dwelling units general Ventilation, !- Design Specification Outdoor Air Object Name 3
  ,                                       !- Design Specification Zone Air Distribution Object Name 3
  DU_BT=Space Function_ST=Dwelling units general_FL=Building Story 1_SCHG 7, !- Zone or ZoneList Name 4
  Space Function Dwelling units general Ventilation, !- Design Specification Outdoor Air Object Name 4
  ,                                       !- Design Specification Zone Air Distribution Object Name 4
  DU_BT=Space Function_ST=Dwelling units general_FL=Building Story 1_SCHG 8, !- Zone or ZoneList Name 5
  Space Function Dwelling units general Ventilation, !- Design Specification Outdoor Air Object Name 5
  ,                                       !- Design Specification Zone Air Distribution Object Name 5
  DU_BT=Space Function_ST=Dwelling units general_FL=Building Story 1_SCHG 9, !- Zone or ZoneList Name 6
  Space Function Dwelling units general Ventilation, !- Design Specification Outdoor Air Object Name 6
  ,                                       !- Design Specification Zone Air Distribution Object Name 6
  DU_BT=Space Function_ST=Dwelling units general_FL=Building Story 2_SCHG, !- Zone or ZoneList Name 7
  Space Function Dwelling units general Ventilation, !- Design Specification Outdoor Air Object Name 7
  ,                                       !- Design Specification Zone Air Distribution Object Name 7
  DU_BT=Space Function_ST=Dwelling units general_FL=Building Story 2_SCHG 10, !- Zone or ZoneList Name 8
  Space Function Dwelling units general Ventilation, !- Design Specification Outdoor Air Object Name 8
  ,                                       !- Design Specification Zone Air Distribution Object Name 8
  DU_BT=Space Function_ST=Dwelling units general_FL=Building Story 2_SCHG 11, !- Zone or ZoneList Name 9
  Space Function Dwelling units general Ventilation, !- Design Specification Outdoor Air Object Name 9
  ,                                       !- Design Specification Zone Air Distribution Object Name 9
  DU_BT=Space Function_ST=Dwelling units general_FL=Building Story 2_SCHG 12, !- Zone or ZoneList Name 10
  Space Function Dwelling units general Ventilation, !- Design Specification Outdoor Air Object Name 10
  ,                                       !- Design Specification Zone Air Distribution Object Name 10
  DU_BT=Space Function_ST=Dwelling units general_FL=Building Story 2_SCHG 8, !- Zone or ZoneList Name 11
  Space Function Dwelling units general Ventilation, !- Design Specification Outdoor Air Object Name 11
  ,                                       !- Design Specification Zone Air Distribution Object Name 11
  DU_BT=Space Function_ST=Dwelling units general_FL=Building Story 2_SCHG 9, !- Zone or ZoneList Name 12
  Space Function Dwelling units general Ventilation, !- Design Specification Outdoor Air Object Name 12
  ,                                       !- Design Specification Zone Air Distribution Object Name 12
  DU_BT=Space Function_ST=Dwelling units general_FL=Building Story 3_SCHG, !- Zone or ZoneList Name 13
  Space Function Dwelling units general Ventilation, !- Design Specification Outdoor Air Object Name 13
  ,                                       !- Design Specification Zone Air Distribution Object Name 13
  DU_BT=Space Function_ST=Dwelling units general_FL=Building Story 3_SCHG 10, !- Zone or ZoneList Name 14
  Space Function Dwelling units general Ventilation, !- Design Specification Outdoor Air Object Name 14
  ,                                       !- Design Specification Zone Air Distribution Object Name 14
  DU_BT=Space Function_ST=Dwelling units general_FL=Building Story 3_SCHG 11, !- Zone or ZoneList Name 15
  Space Function Dwelling units general Ventilation, !- Design Specification Outdoor Air Object Name 15
  ,                                       !- Design Specification Zone Air Distribution Object Name 15
  DU_BT=Space Function_ST=Dwelling units general_FL=Building Story 3_SCHG 12, !- Zone or ZoneList Name 16
  Space Function Dwelling units general Ventilation, !- Design Specification Outdoor Air Object Name 16
  ,                                       !- Design Specification Zone Air Distribution Object Name 16
  DU_BT=Space Function_ST=Dwelling units general_FL=Building Story 3_SCHG 8, !- Zone or ZoneList Name 17
  Space Function Dwelling units general Ventilation, !- Design Specification Outdoor Air Object Name 17
  ,                                       !- Design Specification Zone Air Distribution Object Name 17
  DU_BT=Space Function_ST=Dwelling units general_FL=Building Story 3_SCHG 9, !- Zone or ZoneList Name 18
  Space Function Dwelling units general Ventilation, !- Design Specification Outdoor Air Object Name 18
  ;                                       !- Design Specification Zone Air Distribution Object Name 18

DesignSpecification:OutdoorAir,
  Space Function Dwelling units general Ventilation, !- Name
  Sum,                                    !- Outdoor Air Method
  0.002359737216,                         !- Outdoor Air Flow per Person {m3/s-person}
  0.0003048,                              !- Outdoor Air Flow per Zone Floor Area {m3/s-m2}
  0,                                      !- Outdoor Air Flow per Zone {m3/s}
  0;                                      !- Outdoor Air Flow Air Changes per Hour {1/hr}

DesignSpecification:OutdoorAir:SpaceList,
  DU_BT=Space Function_ST=Dwelling units general_FL=Building Story 1_SCHG DSOA Space List, !- Name
  G NE Apartment,                         !- Space Name 1
  Space Function Dwelling units general Ventilation; !- Space Design Specification Outdoor Air Object Name 1

Zone,
  DU_BT=Space Function_ST=Dwelling units general_FL=Building Story 1_SCHG 10, !- Name
  0,                                      !- Direction of Relative North {deg}
  11.5818351633044,                       !- X Origin {m}
  9.29594664423115,                       !- Y Origin {m}
  0,                                      !- Z Origin {m}
  ,                                       !- Type
  1,                                      !- Multiplier
  ,                                       !- Ceiling Height {m}
  ,                                       !- Volume {m3}
  ,                                       !- Floor Area {m2}
  ,                                       !- Zone Inside Convection Algorithm
  ,                                       !- Zone Outside Convection Algorithm
  Yes;                                    !- Part of Total Floor Area

Space,
  G N1 Apartment,                         !- Name
  DU_BT=Space Function_ST=Dwelling units general_FL=Building Story 1_SCHG 10, !- Zone Name
  ,                                       !- Ceiling Height {m}
  268.970651876525,                       !- Volume {m3}
  ,                                       !- Floor Area {m2}
  Space Function Dwelling units general;  !- Space Type

BuildingSurface:Detailed,
  g Ceilin N1A,                           !- Name
  Ceiling,                                !- Surface Type
  BTAP-Int-Wall,                          !- Construction Name
  DU_BT=Space Function_ST=Dwelling units general_FL=Building Story 1_SCHG 10, !- Zone Name
  G N1 Apartment,                         !- Space Name
  Adiabatic,                              !- Outside Boundary Condition
  ,                                       !- Outside Boundary Condition Object
  NoSun,                                  !- Sun Exposure
  NoWind,                                 !- Wind Exposure
  ,                                       !- View Factor to Ground
  ,                                       !- Number of Vertices
  11.581835, 0, 3.04785135876431,         !- X,Y,Z Vertex 1 {m}
  11.581835, 7.619628, 3.04785135876431,  !- X,Y,Z Vertex 2 {m}
  0, 7.619628, 3.04785135876431,          !- X,Y,Z Vertex 3 {m}
  0, 0, 3.04785135876431;                 !- X,Y,Z Vertex 4 {m}

BuildingSurface:Detailed,
  g EIWALL N1A,                           !- Name
  Wall,                                   !- Surface Type
  BTAP-Int-Wall,                          !- Construction Name
  DU_BT=Space Function_ST=Dwelling units general_FL=Building Story 1_SCHG 10, !- Zone Name
  G N1 Apartment,                         !- Space Name
  Surface,                                !- Outside Boundary Condition
  g EIWALL N2A Reversed,                  !- Outside Boundary Condition Object
  NoSun,                                  !- Sun Exposure
  NoWind,                                 !- Wind Exposure
  ,                                       !- View Factor to Ground
  ,                                       !- Number of Vertices
  11.581835, 0, 3.047851,                 !- X,Y,Z Vertex 1 {m}
  11.581835, 0, 0,                        !- X,Y,Z Vertex 2 {m}
  11.581835, 7.619628, 0,                 !- X,Y,Z Vertex 3 {m}
  11.581835, 7.619628, 3.047851;          !- X,Y,Z Vertex 4 {m}

BuildingSurface:Detailed,
  g EIWALL NWA Reversed,                  !- Name
  Wall,                                   !- Surface Type
  BTAP-Int-Wall,                          !- Construction Name
  DU_BT=Space Function_ST=Dwelling units general_FL=Building Story 1_SCHG 10, !- Zone Name
  G N1 Apartment,                         !- Space Name
  Surface,                                !- Outside Boundary Condition
  g EIWALL NWA,                           !- Outside Boundary Condition Object
  NoSun,                                  !- Sun Exposure
  NoWind,                                 !- Wind Exposure
  ,                                       !- View Factor to Ground
  ,                                       !- Number of Vertices
  -1.63304399336539e-07, 7.619628, 3.047851, !- X,Y,Z Vertex 1 {m}
  -1.63304399336539e-07, 7.619628, 0,     !- X,Y,Z Vertex 2 {m}
  -1.63304399336539e-07, 0, 0,            !- X,Y,Z Vertex 3 {m}
  -1.63304399336539e-07, 0, 3.047851;     !- X,Y,Z Vertex 4 {m}

BuildingSurface:Detailed,
  g GFloor N1A,                           !- Name
  Floor,                                  !- Surface Type
  BTAP-Grnd-Floor-Mass:U-0.757_std,       !- Construction Name
  DU_BT=Space Function_ST=Dwelling units general_FL=Building Story 1_SCHG 10, !- Zone Name
  G N1 Apartment,                         !- Space Name
  Foundation,                             !- Outside Boundary Condition
  Bldg Kiva Foundation,                   !- Outside Boundary Condition Object
  NoSun,                                  !- Sun Exposure
  NoWind,                                 !- Wind Exposure
  ,                                       !- View Factor to Ground
  ,                                       !- Number of Vertices
  11.581835, 7.619628, 0,                 !- X,Y,Z Vertex 1 {m}
  11.581835, 0, 0,                        !- X,Y,Z Vertex 2 {m}
  0, 0, 0,                                !- X,Y,Z Vertex 3 {m}
  0, 7.619628, 0;                         !- X,Y,Z Vertex 4 {m}

SurfaceProperty:ExposedFoundationPerimeter,
  g GFloor N1A,                           !- Surface Name
  TotalExposedPerimeter,                  !- Exposed Perimeter Calculation Method
  11.581835,                              !- Total Exposed Perimeter {m}
  ;                                       !- Exposed Perimeter Fraction {dimensionless}

BuildingSurface:Detailed,
  g NWall N1A,                            !- Name
  Wall,                                   !- Surface Type
  BTAP-Ext-Wall-Mass:U-0.29,              !- Construction Name
  DU_BT=Space Function_ST=Dwelling units general_FL=Building Story 1_SCHG 10, !- Zone Name
  G N1 Apartment,                         !- Space Name
  Outdoors,                               !- Outside Boundary Condition
  ,                                       !- Outside Boundary Condition Object
  SunExposed,                             !- Sun Exposure
  WindExposed,                            !- Wind Exposure
  ,                                       !- View Factor to Ground
  ,                                       !- Number of Vertices
  11.581835, 7.619628, 3.047851,          !- X,Y,Z Vertex 1 {m}
  11.581835, 7.619628, 0,                 !- X,Y,Z Vertex 2 {m}
  -1.63304399336539e-07, 7.619628, 0,     !- X,Y,Z Vertex 3 {m}
  -1.63304399336539e-07, 7.619628, 3.047851; !- X,Y,Z Vertex 4 {m}

FenestrationSurface:Detailed,
  g NWall N1A_FixedWindow,                !- Name
  Window,                                 !- Surface Type
  BTAP-Ext-FixedWindow:U=0.280 SHGC=0.600, !- Construction Name
  g NWall N1A,                            !- Building Surface Name
  ,                                       !- Outside Boundary Condition Object
  ,                                       !- View Factor to Ground
  ,                                       !- Frame and Divider Name
  ,                                       !- Multiplier
  ,                                       !- Number of Vertices
  11.556435, 7.619628, 1.78140567858849,  !- X,Y,Z Vertex 1 {m}
  11.556435, 7.619628, 0.762,             !- X,Y,Z Vertex 2 {m}
  0.0253998366956019, 7.619628, 0.762,    !- X,Y,Z Vertex 3 {m}
  0.0253998366956019, 7.619628, 1.78140567858849; !- X,Y,Z Vertex 4 {m}

BuildingSurface:Detailed,
  g SIWall N1A,                           !- Name
  Wall,                                   !- Surface Type
  BTAP-Int-Wall,                          !- Construction Name
  DU_BT=Space Function_ST=Dwelling units general_FL=Building Story 1_SCHG 10, !- Zone Name
  G N1 Apartment,                         !- Space Name
  Surface,                                !- Outside Boundary Condition
  g SIWall N1A Reversed,                  !- Outside Boundary Condition Object
  NoSun,                                  !- Sun Exposure
  NoWind,                                 !- Wind Exposure
  ,                                       !- View Factor to Ground
  ,                                       !- Number of Vertices
  -1.63304399336539e-07, 0, 3.047851,     !- X,Y,Z Vertex 1 {m}
  -1.63304399336539e-07, 0, 0,            !- X,Y,Z Vertex 2 {m}
  11.581835, 0, 0,                        !- X,Y,Z Vertex 3 {m}
  11.581835, 0, 3.047851;                 !- X,Y,Z Vertex 4 {m}

ZoneInfiltration:DesignFlowRate,
  G N1 Apartment Infiltration,            !- Name
  G N1 Apartment,                         !- Zone or ZoneList or Space or SpaceList Name
  Always On Discrete,                     !- Schedule Name
  Flow/ExteriorArea,                      !- Design Flow Rate Calculation Method
  ,                                       !- Design Flow Rate {m3/s}
  ,                                       !- Flow Rate per Floor Area {m3/s-m2}
  0.00447586595596712,                    !- Flow Rate per Exterior Surface Area {m3/s-m2}
  ,                                       !- Air Changes per Hour {1/hr}
  0,                                      !- Constant Term Coefficient
  0,                                      !- Temperature Term Coefficient
  0.224,                                  !- Velocity Term Coefficient
  0;                                      !- Velocity Squared Term Coefficient

ZoneControl:Thermostat,
  DU_BT=Space Function_ST=Dwelling units general_FL=Building Story 1_SCHG 10 Thermostat, !- Name
  DU_BT=Space Function_ST=Dwelling units general_FL=Building Story 1_SCHG 10, !- Zone or ZoneList Name
  DU_BT=Space Function_ST=Dwelling units general_FL=Building Story 1_SCHG 10 Thermostat Schedule, !- Control Type Schedule Name
  ThermostatSetpoint:DualSetpoint,        !- Control 1 Object Type
  Space Function Dwelling units general Thermostat 49, !- Control 1 Name
  ,                                       !- Control 2 Object Type
  ,                                       !- Control 2 Name
  ,                                       !- Control 3 Object Type
  ,                                       !- Control 3 Name
  ,                                       !- Control 4 Object Type
  ,                                       !- Control 4 Name
  0;                                      !- Temperature Difference Between Cutout And Setpoint {deltaC}

Schedule:Compact,
  DU_BT=Space Function_ST=Dwelling units general_FL=Building Story 1_SCHG 10 Thermostat Schedule, !- Name
  DU_BT=Space Function_ST=Dwelling units general_FL=Building Story 1_SCHG 10 Thermostat Schedule Type Limits, !- Schedule Type Limits Name
  Through: 12/31,                         !- Field 1
  For: AllDays,                           !- Field 2
  Until: 24:00,                           !- Field 3
  4;                                      !- Field 4

ScheduleTypeLimits,
  DU_BT=Space Function_ST=Dwelling units general_FL=Building Story 1_SCHG 10 Thermostat Schedule Type Limits, !- Name
  0,                                      !- Lower Limit Value {BasedOnField A3}
  4,                                      !- Upper Limit Value {BasedOnField A3}
  DISCRETE;                               !- Numeric Type

ThermostatSetpoint:DualSetpoint,
  Space Function Dwelling units general Thermostat 49, !- Name
  NECB-G-Thermostat Setpoint-Heating,     !- Heating Setpoint Temperature Schedule Name
  NECB-G-Thermostat Setpoint-Cooling;     !- Cooling Setpoint Temperature Schedule Name

ZoneHVAC:EquipmentConnections,
  DU_BT=Space Function_ST=Dwelling units general_FL=Building Story 1_SCHG 10, !- Zone Name
  DU_BT=Space Function_ST=Dwelling units general_FL=Building Story 1_SCHG 10 Equipment List, !- Zone Conditioning Equipment List Name
  DU_BT=Space Function_ST=Dwelling units general_FL=Building Story 1_SCHG 10 Inlet Node List, !- Zone Air Inlet Node or NodeList Name
  DU_BT=Space Function_ST=Dwelling units general_FL=Building Story 1_SCHG 10 Exhaust Node List, !- Zone Air Exhaust Node or NodeList Name
  DU_BT=Space Function_ST=Dwelling units general_FL=Building Story 1_SCHG 10 Zone Air Node, !- Zone Air Node Name
  DU_BT=Space Function_ST=Dwelling units general_FL=Building Story 1_SCHG 10 Return Node List; !- Zone Return Air Node or NodeList Name

NodeList,
  DU_BT=Space Function_ST=Dwelling units general_FL=Building Story 1_SCHG 10 Inlet Node List, !- Name
  Air Terminal Single Duct Constant Volume No Reheat 2 Outlet Air Node, !- Node Name 1
  ZoneHVACPackagedTerminalAirConditioner 1 Outlet Air Node; !- Node Name 2

NodeList,
  DU_BT=Space Function_ST=Dwelling units general_FL=Building Story 1_SCHG 10 Exhaust Node List, !- Name
  ZoneHVACPackagedTerminalAirConditioner 1 Inlet Air Node; !- Node Name 1

NodeList,
  DU_BT=Space Function_ST=Dwelling units general_FL=Building Story 1_SCHG 10 Return Node List, !- Name
  DU_BT=Space Function_ST=Dwelling units general_FL=Building Story 1_SCHG 10 Return Air Node; !- Node Name 1

AirTerminal:SingleDuct:ConstantVolume:NoReheat,
  Air Terminal Single Duct Constant Volume No Reheat 2, !- Name
  Always On Discrete,                     !- Availability Schedule Name
  Air Terminal Single Duct Constant Volume No Reheat 2 Inlet Air Node, !- Air Inlet Node Name
  Air Terminal Single Duct Constant Volume No Reheat 2 Outlet Air Node, !- Air Outlet Node Name
  AutoSize;                               !- Maximum Air Flow Rate {m3/s}

ZoneHVAC:AirDistributionUnit,
  ADU Air Terminal Single Duct Constant Volume No Reheat 2, !- Name
  Air Terminal Single Duct Constant Volume No Reheat 2 Outlet Air Node, !- Air Distribution Unit Outlet Node Name
  AirTerminal:SingleDuct:ConstantVolume:NoReheat, !- Air Terminal Object Type
  Air Terminal Single Duct Constant Volume No Reheat 2; !- Air Terminal Name

ZoneHVAC:PackagedTerminalAirConditioner,
  ZoneHVACPackagedTerminalAirConditioner 1, !- Name
  Always On Discrete,                     !- Availability Schedule Name
  ZoneHVACPackagedTerminalAirConditioner 1 Inlet Air Node, !- Air Inlet Node Name
  ZoneHVACPackagedTerminalAirConditioner 1 Outlet Air Node, !- Air Outlet Node Name
  OutdoorAir:Mixer,                       !- Outdoor Air Mixer Object Type
  ZoneHVACPackagedTerminalAirConditioner 1 OA Mixer, !- Outdoor Air Mixer Name
  Autosize,                               !- Cooling Supply Air Flow Rate {m3/s}
  Autosize,                               !- Heating Supply Air Flow Rate {m3/s}
  Autosize,                               !- No Load Supply Air Flow Rate {m3/s}
  Yes,                                    !- No Load Supply Air Flow Rate Control Set To Low Speed
  1e-06,                                  !- Cooling Outdoor Air Flow Rate {m3/s}
  1e-06,                                  !- Heating Outdoor Air Flow Rate {m3/s}
  1e-06,                                  !- No Load Outdoor Air Flow Rate {m3/s}
  Fan:OnOff,                              !- Supply Air Fan Object Type
  FanOnOff 1,                             !- Supply Air Fan Name
  Coil:Heating:Electric,                  !- Heating Coil Object Type
  CoilHeatingElectric 2,                  !- Heating Coil Name
  Coil:Cooling:DX:SingleSpeed,            !- Cooling Coil Object Type
  CoilCoolingDXSingleSpeed_PTAC 1 14kBtu/hr 9.7EER, !- Cooling Coil Name
  DrawThrough,                            !- Fan Placement
  Always Off Discrete;                    !- Supply Air Fan Operating Mode Schedule Name

OutdoorAir:Mixer,
  ZoneHVACPackagedTerminalAirConditioner 1 OA Mixer, !- Name
  ZoneHVACPackagedTerminalAirConditioner 1 Mixed Air Node, !- Mixed Air Node Name
  ZoneHVACPackagedTerminalAirConditioner 1 OA Node, !- Outdoor Air Stream Node Name
  ZoneHVACPackagedTerminalAirConditioner 1 Relief Air Node, !- Relief Air Stream Node Name
  ZoneHVACPackagedTerminalAirConditioner 1 Inlet Air Node; !- Return Air Stream Node Name

OutdoorAir:NodeList,
  ZoneHVACPackagedTerminalAirConditioner 1 OA Node; !- Node or NodeList Name 1

Fan:OnOff,
  FanOnOff 1,                             !- Name
  Always On Discrete,                     !- Availability Schedule Name
  0.39975,                                !- Fan Total Efficiency
  331.2882503,                            !- Pressure Rise {Pa}
  Autosize,                               !- Maximum Flow Rate {m3/s}
  0.615,                                  !- Motor Efficiency
  1,                                      !- Motor In Airstream Fraction
  ZoneHVACPackagedTerminalAirConditioner 1 Heating Coil Outlet Node, !- Air Inlet Node Name
  ZoneHVACPackagedTerminalAirConditioner 1 Outlet Air Node, !- Air Outlet Node Name
  Fan On Off Power Curve 1,               !- Fan Power Ratio Function of Speed Ratio Curve Name
  Fan On Off Efficiency Curve 1,          !- Fan Efficiency Ratio Function of Speed Ratio Curve Name
  General;                                !- End-Use Subcategory

Curve:Exponent,
  Fan On Off Power Curve 1,               !- Name
  1,                                      !- Coefficient1 Constant
  0,                                      !- Coefficient2 Constant
  0,                                      !- Coefficient3 Constant
  0,                                      !- Minimum Value of x {BasedOnField A2}
  1;                                      !- Maximum Value of x {BasedOnField A2}

Curve:Cubic,
  Fan On Off Efficiency Curve 1,          !- Name
  1,                                      !- Coefficient1 Constant
  0,                                      !- Coefficient2 x
  0,                                      !- Coefficient3 x**2
  0,                                      !- Coefficient4 x**3
  0,                                      !- Minimum Value of x {BasedOnField A2}
  1;                                      !- Maximum Value of x {BasedOnField A2}

Coil:Heating:Electric,
  CoilHeatingElectric 2,                  !- Name
  Always Off Discrete,                    !- Availability Schedule Name
  1,                                      !- Efficiency
  Autosize,                               !- Nominal Capacity {W}
  ZoneHVACPackagedTerminalAirConditioner 1 Cooling Coil Outlet Node, !- Air Inlet Node Name
  ZoneHVACPackagedTerminalAirConditioner 1 Heating Coil Outlet Node; !- Air Outlet Node Name

Coil:Cooling:DX:SingleSpeed,
  CoilCoolingDXSingleSpeed_PTAC 1 14kBtu/hr 9.7EER, !- Name
  Always On Discrete,                     !- Availability Schedule Name
  Autosize,                               !- Gross Rated Total Cooling Capacity {W}
  Autosize,                               !- Gross Rated Sensible Heat Ratio
  3.38089462830487,                       !- Gross Rated Cooling COP {W/W}
  Autosize,                               !- Rated Air Flow Rate {m3/s}
  773.3,                                  !- Rated Evaporator Fan Power Per Volume Flow Rate 2017 {W/(m3/s)}
  934.4,                                  !- Rated Evaporator Fan Power Per Volume Flow Rate 2023 {W/(m3/s)}
  ZoneHVACPackagedTerminalAirConditioner 1 Mixed Air Node, !- Air Inlet Node Name
  ZoneHVACPackagedTerminalAirConditioner 1 Cooling Coil Outlet Node, !- Air Outlet Node Name
  DXCOOL-NECB2011-REF-CAPFT,              !- Total Cooling Capacity Function of Temperature Curve Name
  DXCOOL-NECB2011-REF-CAPFFLOW,           !- Total Cooling Capacity Function of Flow Fraction Curve Name
  DXCOOL-NECB2011-REF-COOLEIRFT,          !- Energy Input Ratio Function of Temperature Curve Name
  DXCOOL-NECB2011-REF-COOLEIRFFLOW,       !- Energy Input Ratio Function of Flow Fraction Curve Name
  DXCOOL-NECB2011-REF-COOLPLFFPLR,        !- Part Load Fraction Correlation Curve Name
  -25,                                    !- Minimum Outdoor Dry-Bulb Temperature for Compressor Operation {C}
  0,                                      !- Nominal Time for Condensate Removal to Begin {s}
  0,                                      !- Ratio of Initial Moisture Evaporation Rate and Steady State Latent Capacity {dimensionless}
  0,                                      !- Maximum Cycling Rate {cycles/hr}
  0,                                      !- Latent Capacity Time Constant {s}
  ,                                       !- Condenser Air Inlet Node Name
  AirCooled,                              !- Condenser Type
  0.9,                                    !- Evaporative Condenser Effectiveness {dimensionless}
  Autosize,                               !- Evaporative Condenser Air Flow Rate {m3/s}
  Autosize,                               !- Evaporative Condenser Pump Rated Power Consumption {W}
  1e-06,                                  !- Crankcase Heater Capacity {W}
  ,                                       !- Crankcase Heater Capacity Function of Temperature Curve Name
  10,                                     !- Maximum Outdoor Dry-Bulb Temperature for Crankcase Heater Operation {C}
  ,                                       !- Supply Water Storage Tank Name
  ,                                       !- Condensate Collection Water Storage Tank Name
  0,                                      !- Basin Heater Capacity {W/K}
  2;                                      !- Basin Heater Setpoint Temperature {C}

ZoneHVAC:Baseboard:Convective:Electric,
  ZoneHVACBaseboardConvectiveElectric 1,  !- Name
  Always On Discrete,                     !- Availability Schedule Name
  ,                                       !- Heating Design Capacity Method
  Autosize,                               !- Heating Design Capacity {W}
  ,                                       !- Heating Design Capacity Per Floor Area {W/m2}
  ,                                       !- Fraction of Autosized Heating Design Capacity
  1;                                      !- Efficiency

ZoneHVAC:EquipmentList,
  DU_BT=Space Function_ST=Dwelling units general_FL=Building Story 1_SCHG 10 Equipment List, !- Name
  SequentialLoad,                         !- Load Distribution Scheme
  ZoneHVAC:AirDistributionUnit,           !- Zone Equipment Object Type 1
  ADU Air Terminal Single Duct Constant Volume No Reheat 2, !- Zone Equipment Name 1
  1,                                      !- Zone Equipment Cooling Sequence 1
  1,                                      !- Zone Equipment Heating or No-Load Sequence 1
  ,                                       !- Zone Equipment Sequential Cooling Fraction Schedule Name 1
  ,                                       !- Zone Equipment Sequential Heating Fraction Schedule Name 1
  ZoneHVAC:PackagedTerminalAirConditioner, !- Zone Equipment Object Type 2
  ZoneHVACPackagedTerminalAirConditioner 1, !- Zone Equipment Name 2
  2,                                      !- Zone Equipment Cooling Sequence 2
  2,                                      !- Zone Equipment Heating or No-Load Sequence 2
  ,                                       !- Zone Equipment Sequential Cooling Fraction Schedule Name 2
  ,                                       !- Zone Equipment Sequential Heating Fraction Schedule Name 2
  ZoneHVAC:Baseboard:Convective:Electric, !- Zone Equipment Object Type 3
  ZoneHVACBaseboardConvectiveElectric 1,  !- Zone Equipment Name 3
  3,                                      !- Zone Equipment Cooling Sequence 3
  3,                                      !- Zone Equipment Heating or No-Load Sequence 3
  ,                                       !- Zone Equipment Sequential Cooling Fraction Schedule Name 3
  ;                                       !- Zone Equipment Sequential Heating Fraction Schedule Name 3

Sizing:Zone,
  DU_BT=Space Function_ST=Dwelling units general_FL=Building Story 1_SCHG 10, !- Zone or ZoneList Name
  TemperatureDifference,                  !- Zone Cooling Design Supply Air Temperature Input Method
  13,                                     !- Zone Cooling Design Supply Air Temperature {C}
  11,                                     !- Zone Cooling Design Supply Air Temperature Difference {deltaC}
  TemperatureDifference,                  !- Zone Heating Design Supply Air Temperature Input Method
  43,                                     !- Zone Heating Design Supply Air Temperature {C}
  21,                                     !- Zone Heating Design Supply Air Temperature Difference {deltaC}
  0.0085,                                 !- Zone Cooling Design Supply Air Humidity Ratio {kgWater/kgDryAir}
  0.008,                                  !- Zone Heating Design Supply Air Humidity Ratio {kgWater/kgDryAir}
  DU_BT=Space Function_ST=Dwelling units general_FL=Building Story 1_SCHG 10 DSOA Space List, !- Design Specification Outdoor Air Object Name
  1.3,                                    !- Zone Heating Sizing Factor
  1.1,                                    !- Zone Cooling Sizing Factor
  DesignDay,                              !- Cooling Design Air Flow Method
  0,                                      !- Cooling Design Air Flow Rate {m3/s}
  0.000762,                               !- Cooling Minimum Air Flow per Zone Floor Area {m3/s-m2}
  0,                                      !- Cooling Minimum Air Flow {m3/s}
  0,                                      !- Cooling Minimum Air Flow Fraction
  DesignDay,                              !- Heating Design Air Flow Method
  0,                                      !- Heating Design Air Flow Rate {m3/s}
  0.002032,                               !- Heating Maximum Air Flow per Zone Floor Area {m3/s-m2}
  0.1415762,                              !- Heating Maximum Air Flow {m3/s}
  0.3,                                    !- Heating Maximum Air Flow Fraction
  ,                                       !- Design Specification Zone Air Distribution Object Name
  No,                                     !- Account for Dedicated Outdoor Air System
  ,                                       !- Dedicated Outdoor Air System Control Strategy
  ,                                       !- Dedicated Outdoor Air Low Setpoint Temperature for Design {C}
  ,                                       !- Dedicated Outdoor Air High Setpoint Temperature for Design {C}
  Sensible Load Only No Latent Load,      !- Zone Load Sizing Method
  HumidityRatioDifference,                !- Zone Latent Cooling Design Supply Air Humidity Ratio Input Method
  ,                                       !- Zone Dehumidification Design Supply Air Humidity Ratio {kgWater/kgDryAir}
  0.005,                                  !- Zone Cooling Design Supply Air Humidity Ratio Difference {kgWater/kgDryAir}
  HumidityRatioDifference,                !- Zone Latent Heating Design Supply Air Humidity Ratio Input Method
  ,                                       !- Zone Humidification Design Supply Air Humidity Ratio {kgWater/kgDryAir}
  0.005,                                  !- Zone Humidification Design Supply Air Humidity Ratio Difference {kgWater/kgDryAir}
  ,                                       !- Zone Humidistat Dehumidification Set Point Schedule Name
  ,                                       !- Zone Humidistat Humidification Set Point Schedule Name
  Coincident;                             !- Type of Space Sum to Use

DesignSpecification:OutdoorAir:SpaceList,
  DU_BT=Space Function_ST=Dwelling units general_FL=Building Story 1_SCHG 10 DSOA Space List, !- Name
  G N1 Apartment,                         !- Space Name 1
  Space Function Dwelling units general Ventilation; !- Space Design Specification Outdoor Air Object Name 1

Zone,
  DU_BT=Space Function_ST=Dwelling units general_FL=Building Story 1_SCHG 11, !- Name
  0,                                      !- Direction of Relative North {deg}
  11.5818351633044,                       !- X Origin {m}
  0,                                      !- Y Origin {m}
  0,                                      !- Z Origin {m}
  ,                                       !- Type
  1,                                      !- Multiplier
  ,                                       !- Ceiling Height {m}
  ,                                       !- Volume {m3}
  ,                                       !- Floor Area {m2}
  ,                                       !- Zone Inside Convection Algorithm
  ,                                       !- Zone Outside Convection Algorithm
  Yes;                                    !- Part of Total Floor Area

Space,
  G S1 Apartment,                         !- Name
  DU_BT=Space Function_ST=Dwelling units general_FL=Building Story 1_SCHG 11, !- Zone Name
  ,                                       !- Ceiling Height {m}
  268.970649348193,                       !- Volume {m3}
  ,                                       !- Floor Area {m2}
  Space Function Dwelling units general;  !- Space Type

BuildingSurface:Detailed,
  g Ceilin S1A,                           !- Name
  Ceiling,                                !- Surface Type
  BTAP-Int-Wall,                          !- Construction Name
  DU_BT=Space Function_ST=Dwelling units general_FL=Building Story 1_SCHG 11, !- Zone Name
  G S1 Apartment,                         !- Space Name
  Adiabatic,                              !- Outside Boundary Condition
  ,                                       !- Outside Boundary Condition Object
  NoSun,                                  !- Sun Exposure
  NoWind,                                 !- Wind Exposure
  ,                                       !- View Factor to Ground
  ,                                       !- Number of Vertices
  11.581835, 0, 3.04785135876431,         !- X,Y,Z Vertex 1 {m}
  11.581835, 7.619628, 3.04785135876431,  !- X,Y,Z Vertex 2 {m}
  0, 7.619628, 3.04785135876431,          !- X,Y,Z Vertex 3 {m}
  0, 0, 3.04785135876431;                 !- X,Y,Z Vertex 4 {m}

BuildingSurface:Detailed,
  g EIWALL S1A,                           !- Name
  Wall,                                   !- Surface Type
  BTAP-Int-Wall,                          !- Construction Name
  DU_BT=Space Function_ST=Dwelling units general_FL=Building Story 1_SCHG 11, !- Zone Name
  G S1 Apartment,                         !- Space Name
  Surface,                                !- Outside Boundary Condition
  g EIWALL S2A Reversed,                  !- Outside Boundary Condition Object
  NoSun,                                  !- Sun Exposure
  NoWind,                                 !- Wind Exposure
  ,                                       !- View Factor to Ground
  ,                                       !- Number of Vertices
  11.581835, 0, 3.047851,                 !- X,Y,Z Vertex 1 {m}
  11.581835, 0, 0,                        !- X,Y,Z Vertex 2 {m}
  11.581835, 7.619628, 0,                 !- X,Y,Z Vertex 3 {m}
  11.581835, 7.619628, 3.047851;          !- X,Y,Z Vertex 4 {m}

BuildingSurface:Detailed,
  g EIWALL SWA Reversed,                  !- Name
  Wall,                                   !- Surface Type
  BTAP-Int-Wall,                          !- Construction Name
  DU_BT=Space Function_ST=Dwelling units general_FL=Building Story 1_SCHG 11, !- Zone Name
  G S1 Apartment,                         !- Space Name
  Surface,                                !- Outside Boundary Condition
  g EIWALL SWA,                           !- Outside Boundary Condition Object
  NoSun,                                  !- Sun Exposure
  NoWind,                                 !- Wind Exposure
  ,                                       !- View Factor to Ground
  ,                                       !- Number of Vertices
  0, 7.619628, 3.047851,                  !- X,Y,Z Vertex 1 {m}
  0, 7.619628, 0,                         !- X,Y,Z Vertex 2 {m}
  0, 0, 0,                                !- X,Y,Z Vertex 3 {m}
  0, 0, 3.047851;                         !- X,Y,Z Vertex 4 {m}

BuildingSurface:Detailed,
  g GFloor S1A,                           !- Name
  Floor,                                  !- Surface Type
  BTAP-Grnd-Floor-Mass:U-0.757_std,       !- Construction Name
  DU_BT=Space Function_ST=Dwelling units general_FL=Building Story 1_SCHG 11, !- Zone Name
  G S1 Apartment,                         !- Space Name
  Foundation,                             !- Outside Boundary Condition
  Bldg Kiva Foundation,                   !- Outside Boundary Condition Object
  NoSun,                                  !- Sun Exposure
  NoWind,                                 !- Wind Exposure
  ,                                       !- View Factor to Ground
  ,                                       !- Number of Vertices
  11.581835, 7.619628, 0,                 !- X,Y,Z Vertex 1 {m}
  11.581835, 0, 0,                        !- X,Y,Z Vertex 2 {m}
  0, 0, 0,                                !- X,Y,Z Vertex 3 {m}
  0, 7.619628, 0;                         !- X,Y,Z Vertex 4 {m}

SurfaceProperty:ExposedFoundationPerimeter,
  g GFloor S1A,                           !- Surface Name
  TotalExposedPerimeter,                  !- Exposed Perimeter Calculation Method
  11.581835,                              !- Total Exposed Perimeter {m}
  ;                                       !- Exposed Perimeter Fraction {dimensionless}

BuildingSurface:Detailed,
  g NIWall S1A,                           !- Name
  Wall,                                   !- Surface Type
  BTAP-Int-Wall,                          !- Construction Name
  DU_BT=Space Function_ST=Dwelling units general_FL=Building Story 1_SCHG 11, !- Zone Name
  G S1 Apartment,                         !- Space Name
  Surface,                                !- Outside Boundary Condition
  g NIWall S1A Reversed,                  !- Outside Boundary Condition Object
  NoSun,                                  !- Sun Exposure
  NoWind,                                 !- Wind Exposure
  ,                                       !- View Factor to Ground
  ,                                       !- Number of Vertices
  11.581835, 7.619628, 3.047851,          !- X,Y,Z Vertex 1 {m}
  11.581835, 7.619628, 0,                 !- X,Y,Z Vertex 2 {m}
  0, 7.619628, 0,                         !- X,Y,Z Vertex 3 {m}
  0, 7.619628, 3.047851;                  !- X,Y,Z Vertex 4 {m}

BuildingSurface:Detailed,
  g SWall S1A,                            !- Name
  Wall,                                   !- Surface Type
  BTAP-Ext-Wall-Mass:U-0.29,              !- Construction Name
  DU_BT=Space Function_ST=Dwelling units general_FL=Building Story 1_SCHG 11, !- Zone Name
  G S1 Apartment,                         !- Space Name
  Outdoors,                               !- Outside Boundary Condition
  ,                                       !- Outside Boundary Condition Object
  SunExposed,                             !- Sun Exposure
  WindExposed,                            !- Wind Exposure
  ,                                       !- View Factor to Ground
  ,                                       !- Number of Vertices
  0, 0, 3.047851,                         !- X,Y,Z Vertex 1 {m}
  0, 0, 0,                                !- X,Y,Z Vertex 2 {m}
  11.581835, 0, 0,                        !- X,Y,Z Vertex 3 {m}
  11.581835, 0, 3.047851;                 !- X,Y,Z Vertex 4 {m}

FenestrationSurface:Detailed,
  g SWall S1A_FixedWindow,                !- Name
  Window,                                 !- Surface Type
  BTAP-Ext-FixedWindow:U=0.280 SHGC=0.600, !- Construction Name
  g SWall S1A,                            !- Building Surface Name
  ,                                       !- Outside Boundary Condition Object
  ,                                       !- View Factor to Ground
  ,                                       !- Frame and Divider Name
  ,                                       !- Multiplier
  ,                                       !- Number of Vertices
  0.0254, 0, 1.78140567865181,            !- X,Y,Z Vertex 1 {m}
  0.0254, 0, 0.762,                       !- X,Y,Z Vertex 2 {m}
  11.556435, 0, 0.762,                    !- X,Y,Z Vertex 3 {m}
  11.556435, 0, 1.78140567865181;         !- X,Y,Z Vertex 4 {m}

ZoneInfiltration:DesignFlowRate,
  G S1 Apartment Infiltration,            !- Name
  G S1 Apartment,                         !- Zone or ZoneList or Space or SpaceList Name
  Always On Discrete,                     !- Schedule Name
  Flow/ExteriorArea,                      !- Design Flow Rate Calculation Method
  ,                                       !- Design Flow Rate {m3/s}
  ,                                       !- Flow Rate per Floor Area {m3/s-m2}
  0.00447586595596712,                    !- Flow Rate per Exterior Surface Area {m3/s-m2}
  ,                                       !- Air Changes per Hour {1/hr}
  0,                                      !- Constant Term Coefficient
  0,                                      !- Temperature Term Coefficient
  0.224,                                  !- Velocity Term Coefficient
  0;                                      !- Velocity Squared Term Coefficient

ZoneControl:Thermostat,
  DU_BT=Space Function_ST=Dwelling units general_FL=Building Story 1_SCHG 11 Thermostat, !- Name
  DU_BT=Space Function_ST=Dwelling units general_FL=Building Story 1_SCHG 11, !- Zone or ZoneList Name
  DU_BT=Space Function_ST=Dwelling units general_FL=Building Story 1_SCHG 11 Thermostat Schedule, !- Control Type Schedule Name
  ThermostatSetpoint:DualSetpoint,        !- Control 1 Object Type
  Space Function Dwelling units general Thermostat 53, !- Control 1 Name
  ,                                       !- Control 2 Object Type
  ,                                       !- Control 2 Name
  ,                                       !- Control 3 Object Type
  ,                                       !- Control 3 Name
  ,                                       !- Control 4 Object Type
  ,                                       !- Control 4 Name
  0;                                      !- Temperature Difference Between Cutout And Setpoint {deltaC}

Schedule:Compact,
  DU_BT=Space Function_ST=Dwelling units general_FL=Building Story 1_SCHG 11 Thermostat Schedule, !- Name
  DU_BT=Space Function_ST=Dwelling units general_FL=Building Story 1_SCHG 11 Thermostat Schedule Type Limits, !- Schedule Type Limits Name
  Through: 12/31,                         !- Field 1
  For: AllDays,                           !- Field 2
  Until: 24:00,                           !- Field 3
  4;                                      !- Field 4

ScheduleTypeLimits,
  DU_BT=Space Function_ST=Dwelling units general_FL=Building Story 1_SCHG 11 Thermostat Schedule Type Limits, !- Name
  0,                                      !- Lower Limit Value {BasedOnField A3}
  4,                                      !- Upper Limit Value {BasedOnField A3}
  DISCRETE;                               !- Numeric Type

ThermostatSetpoint:DualSetpoint,
  Space Function Dwelling units general Thermostat 53, !- Name
  NECB-G-Thermostat Setpoint-Heating,     !- Heating Setpoint Temperature Schedule Name
  NECB-G-Thermostat Setpoint-Cooling;     !- Cooling Setpoint Temperature Schedule Name

ZoneHVAC:EquipmentConnections,
  DU_BT=Space Function_ST=Dwelling units general_FL=Building Story 1_SCHG 11, !- Zone Name
  DU_BT=Space Function_ST=Dwelling units general_FL=Building Story 1_SCHG 11 Equipment List, !- Zone Conditioning Equipment List Name
  DU_BT=Space Function_ST=Dwelling units general_FL=Building Story 1_SCHG 11 Inlet Node List, !- Zone Air Inlet Node or NodeList Name
  DU_BT=Space Function_ST=Dwelling units general_FL=Building Story 1_SCHG 11 Exhaust Node List, !- Zone Air Exhaust Node or NodeList Name
  DU_BT=Space Function_ST=Dwelling units general_FL=Building Story 1_SCHG 11 Zone Air Node, !- Zone Air Node Name
  DU_BT=Space Function_ST=Dwelling units general_FL=Building Story 1_SCHG 11 Return Node List; !- Zone Return Air Node or NodeList Name

NodeList,
  DU_BT=Space Function_ST=Dwelling units general_FL=Building Story 1_SCHG 11 Inlet Node List, !- Name
  Air Terminal Single Duct Constant Volume No Reheat 3 Outlet Air Node, !- Node Name 1
  ZoneHVACPackagedTerminalAirConditioner 2 Outlet Air Node; !- Node Name 2

NodeList,
  DU_BT=Space Function_ST=Dwelling units general_FL=Building Story 1_SCHG 11 Exhaust Node List, !- Name
  ZoneHVACPackagedTerminalAirConditioner 2 Inlet Air Node; !- Node Name 1

NodeList,
  DU_BT=Space Function_ST=Dwelling units general_FL=Building Story 1_SCHG 11 Return Node List, !- Name
  DU_BT=Space Function_ST=Dwelling units general_FL=Building Story 1_SCHG 11 Return Air Node; !- Node Name 1

AirTerminal:SingleDuct:ConstantVolume:NoReheat,
  Air Terminal Single Duct Constant Volume No Reheat 3, !- Name
  Always On Discrete,                     !- Availability Schedule Name
  Air Terminal Single Duct Constant Volume No Reheat 3 Inlet Air Node, !- Air Inlet Node Name
  Air Terminal Single Duct Constant Volume No Reheat 3 Outlet Air Node, !- Air Outlet Node Name
  AutoSize;                               !- Maximum Air Flow Rate {m3/s}

ZoneHVAC:AirDistributionUnit,
  ADU Air Terminal Single Duct Constant Volume No Reheat 3, !- Name
  Air Terminal Single Duct Constant Volume No Reheat 3 Outlet Air Node, !- Air Distribution Unit Outlet Node Name
  AirTerminal:SingleDuct:ConstantVolume:NoReheat, !- Air Terminal Object Type
  Air Terminal Single Duct Constant Volume No Reheat 3; !- Air Terminal Name

ZoneHVAC:PackagedTerminalAirConditioner,
  ZoneHVACPackagedTerminalAirConditioner 2, !- Name
  Always On Discrete,                     !- Availability Schedule Name
  ZoneHVACPackagedTerminalAirConditioner 2 Inlet Air Node, !- Air Inlet Node Name
  ZoneHVACPackagedTerminalAirConditioner 2 Outlet Air Node, !- Air Outlet Node Name
  OutdoorAir:Mixer,                       !- Outdoor Air Mixer Object Type
  ZoneHVACPackagedTerminalAirConditioner 2 OA Mixer, !- Outdoor Air Mixer Name
  Autosize,                               !- Cooling Supply Air Flow Rate {m3/s}
  Autosize,                               !- Heating Supply Air Flow Rate {m3/s}
  Autosize,                               !- No Load Supply Air Flow Rate {m3/s}
  Yes,                                    !- No Load Supply Air Flow Rate Control Set To Low Speed
  1e-06,                                  !- Cooling Outdoor Air Flow Rate {m3/s}
  1e-06,                                  !- Heating Outdoor Air Flow Rate {m3/s}
  1e-06,                                  !- No Load Outdoor Air Flow Rate {m3/s}
  Fan:OnOff,                              !- Supply Air Fan Object Type
  FanOnOff 2,                             !- Supply Air Fan Name
  Coil:Heating:Electric,                  !- Heating Coil Object Type
  CoilHeatingElectric 3,                  !- Heating Coil Name
  Coil:Cooling:DX:SingleSpeed,            !- Cooling Coil Object Type
  CoilCoolingDXSingleSpeed_PTAC 2 14kBtu/hr 9.7EER, !- Cooling Coil Name
  DrawThrough,                            !- Fan Placement
  Always Off Discrete;                    !- Supply Air Fan Operating Mode Schedule Name

OutdoorAir:Mixer,
  ZoneHVACPackagedTerminalAirConditioner 2 OA Mixer, !- Name
  ZoneHVACPackagedTerminalAirConditioner 2 Mixed Air Node, !- Mixed Air Node Name
  ZoneHVACPackagedTerminalAirConditioner 2 OA Node, !- Outdoor Air Stream Node Name
  ZoneHVACPackagedTerminalAirConditioner 2 Relief Air Node, !- Relief Air Stream Node Name
  ZoneHVACPackagedTerminalAirConditioner 2 Inlet Air Node; !- Return Air Stream Node Name

OutdoorAir:NodeList,
  ZoneHVACPackagedTerminalAirConditioner 2 OA Node; !- Node or NodeList Name 1

Fan:OnOff,
  FanOnOff 2,                             !- Name
  Always On Discrete,                     !- Availability Schedule Name
  0.39975,                                !- Fan Total Efficiency
  331.2882503,                            !- Pressure Rise {Pa}
  Autosize,                               !- Maximum Flow Rate {m3/s}
  0.615,                                  !- Motor Efficiency
  1,                                      !- Motor In Airstream Fraction
  ZoneHVACPackagedTerminalAirConditioner 2 Heating Coil Outlet Node, !- Air Inlet Node Name
  ZoneHVACPackagedTerminalAirConditioner 2 Outlet Air Node, !- Air Outlet Node Name
  Fan On Off Power Curve 2,               !- Fan Power Ratio Function of Speed Ratio Curve Name
  Fan On Off Efficiency Curve 2,          !- Fan Efficiency Ratio Function of Speed Ratio Curve Name
  General;                                !- End-Use Subcategory

Curve:Exponent,
  Fan On Off Power Curve 2,               !- Name
  1,                                      !- Coefficient1 Constant
  0,                                      !- Coefficient2 Constant
  0,                                      !- Coefficient3 Constant
  0,                                      !- Minimum Value of x {BasedOnField A2}
  1;                                      !- Maximum Value of x {BasedOnField A2}

Curve:Cubic,
  Fan On Off Efficiency Curve 2,          !- Name
  1,                                      !- Coefficient1 Constant
  0,                                      !- Coefficient2 x
  0,                                      !- Coefficient3 x**2
  0,                                      !- Coefficient4 x**3
  0,                                      !- Minimum Value of x {BasedOnField A2}
  1;                                      !- Maximum Value of x {BasedOnField A2}

Coil:Heating:Electric,
  CoilHeatingElectric 3,                  !- Name
  Always Off Discrete,                    !- Availability Schedule Name
  1,                                      !- Efficiency
  Autosize,                               !- Nominal Capacity {W}
  ZoneHVACPackagedTerminalAirConditioner 2 Cooling Coil Outlet Node, !- Air Inlet Node Name
  ZoneHVACPackagedTerminalAirConditioner 2 Heating Coil Outlet Node; !- Air Outlet Node Name

Coil:Cooling:DX:SingleSpeed,
  CoilCoolingDXSingleSpeed_PTAC 2 14kBtu/hr 9.7EER, !- Name
  Always On Discrete,                     !- Availability Schedule Name
  Autosize,                               !- Gross Rated Total Cooling Capacity {W}
  Autosize,                               !- Gross Rated Sensible Heat Ratio
  3.36958524206444,                       !- Gross Rated Cooling COP {W/W}
  Autosize,                               !- Rated Air Flow Rate {m3/s}
  773.3,                                  !- Rated Evaporator Fan Power Per Volume Flow Rate 2017 {W/(m3/s)}
  934.4,                                  !- Rated Evaporator Fan Power Per Volume Flow Rate 2023 {W/(m3/s)}
  ZoneHVACPackagedTerminalAirConditioner 2 Mixed Air Node, !- Air Inlet Node Name
  ZoneHVACPackagedTerminalAirConditioner 2 Cooling Coil Outlet Node, !- Air Outlet Node Name
  DXCOOL-NECB2011-REF-CAPFT,              !- Total Cooling Capacity Function of Temperature Curve Name
  DXCOOL-NECB2011-REF-CAPFFLOW,           !- Total Cooling Capacity Function of Flow Fraction Curve Name
  DXCOOL-NECB2011-REF-COOLEIRFT,          !- Energy Input Ratio Function of Temperature Curve Name
  DXCOOL-NECB2011-REF-COOLEIRFFLOW,       !- Energy Input Ratio Function of Flow Fraction Curve Name
  DXCOOL-NECB2011-REF-COOLPLFFPLR,        !- Part Load Fraction Correlation Curve Name
  -25,                                    !- Minimum Outdoor Dry-Bulb Temperature for Compressor Operation {C}
  0,                                      !- Nominal Time for Condensate Removal to Begin {s}
  0,                                      !- Ratio of Initial Moisture Evaporation Rate and Steady State Latent Capacity {dimensionless}
  0,                                      !- Maximum Cycling Rate {cycles/hr}
  0,                                      !- Latent Capacity Time Constant {s}
  ,                                       !- Condenser Air Inlet Node Name
  AirCooled,                              !- Condenser Type
  0.9,                                    !- Evaporative Condenser Effectiveness {dimensionless}
  Autosize,                               !- Evaporative Condenser Air Flow Rate {m3/s}
  Autosize,                               !- Evaporative Condenser Pump Rated Power Consumption {W}
  1e-06,                                  !- Crankcase Heater Capacity {W}
  ,                                       !- Crankcase Heater Capacity Function of Temperature Curve Name
  10,                                     !- Maximum Outdoor Dry-Bulb Temperature for Crankcase Heater Operation {C}
  ,                                       !- Supply Water Storage Tank Name
  ,                                       !- Condensate Collection Water Storage Tank Name
  0,                                      !- Basin Heater Capacity {W/K}
  2;                                      !- Basin Heater Setpoint Temperature {C}

ZoneHVAC:Baseboard:Convective:Electric,
  ZoneHVACBaseboardConvectiveElectric 2,  !- Name
  Always On Discrete,                     !- Availability Schedule Name
  ,                                       !- Heating Design Capacity Method
  Autosize,                               !- Heating Design Capacity {W}
  ,                                       !- Heating Design Capacity Per Floor Area {W/m2}
  ,                                       !- Fraction of Autosized Heating Design Capacity
  1;                                      !- Efficiency

ZoneHVAC:EquipmentList,
  DU_BT=Space Function_ST=Dwelling units general_FL=Building Story 1_SCHG 11 Equipment List, !- Name
  SequentialLoad,                         !- Load Distribution Scheme
  ZoneHVAC:AirDistributionUnit,           !- Zone Equipment Object Type 1
  ADU Air Terminal Single Duct Constant Volume No Reheat 3, !- Zone Equipment Name 1
  1,                                      !- Zone Equipment Cooling Sequence 1
  1,                                      !- Zone Equipment Heating or No-Load Sequence 1
  ,                                       !- Zone Equipment Sequential Cooling Fraction Schedule Name 1
  ,                                       !- Zone Equipment Sequential Heating Fraction Schedule Name 1
  ZoneHVAC:PackagedTerminalAirConditioner, !- Zone Equipment Object Type 2
  ZoneHVACPackagedTerminalAirConditioner 2, !- Zone Equipment Name 2
  2,                                      !- Zone Equipment Cooling Sequence 2
  2,                                      !- Zone Equipment Heating or No-Load Sequence 2
  ,                                       !- Zone Equipment Sequential Cooling Fraction Schedule Name 2
  ,                                       !- Zone Equipment Sequential Heating Fraction Schedule Name 2
  ZoneHVAC:Baseboard:Convective:Electric, !- Zone Equipment Object Type 3
  ZoneHVACBaseboardConvectiveElectric 2,  !- Zone Equipment Name 3
  3,                                      !- Zone Equipment Cooling Sequence 3
  3,                                      !- Zone Equipment Heating or No-Load Sequence 3
  ,                                       !- Zone Equipment Sequential Cooling Fraction Schedule Name 3
  ;                                       !- Zone Equipment Sequential Heating Fraction Schedule Name 3

Sizing:Zone,
  DU_BT=Space Function_ST=Dwelling units general_FL=Building Story 1_SCHG 11, !- Zone or ZoneList Name
  TemperatureDifference,                  !- Zone Cooling Design Supply Air Temperature Input Method
  13,                                     !- Zone Cooling Design Supply Air Temperature {C}
  11,                                     !- Zone Cooling Design Supply Air Temperature Difference {deltaC}
  TemperatureDifference,                  !- Zone Heating Design Supply Air Temperature Input Method
  43,                                     !- Zone Heating Design Supply Air Temperature {C}
  21,                                     !- Zone Heating Design Supply Air Temperature Difference {deltaC}
  0.0085,                                 !- Zone Cooling Design Supply Air Humidity Ratio {kgWater/kgDryAir}
  0.008,                                  !- Zone Heating Design Supply Air Humidity Ratio {kgWater/kgDryAir}
  DU_BT=Space Function_ST=Dwelling units general_FL=Building Story 1_SCHG 11 DSOA Space List, !- Design Specification Outdoor Air Object Name
  1.3,                                    !- Zone Heating Sizing Factor
  1.1,                                    !- Zone Cooling Sizing Factor
  DesignDay,                              !- Cooling Design Air Flow Method
  0,                                      !- Cooling Design Air Flow Rate {m3/s}
  0.000762,                               !- Cooling Minimum Air Flow per Zone Floor Area {m3/s-m2}
  0,                                      !- Cooling Minimum Air Flow {m3/s}
  0,                                      !- Cooling Minimum Air Flow Fraction
  DesignDay,                              !- Heating Design Air Flow Method
  0,                                      !- Heating Design Air Flow Rate {m3/s}
  0.002032,                               !- Heating Maximum Air Flow per Zone Floor Area {m3/s-m2}
  0.1415762,                              !- Heating Maximum Air Flow {m3/s}
  0.3,                                    !- Heating Maximum Air Flow Fraction
  ,                                       !- Design Specification Zone Air Distribution Object Name
  No,                                     !- Account for Dedicated Outdoor Air System
  ,                                       !- Dedicated Outdoor Air System Control Strategy
  ,                                       !- Dedicated Outdoor Air Low Setpoint Temperature for Design {C}
  ,                                       !- Dedicated Outdoor Air High Setpoint Temperature for Design {C}
  Sensible Load Only No Latent Load,      !- Zone Load Sizing Method
  HumidityRatioDifference,                !- Zone Latent Cooling Design Supply Air Humidity Ratio Input Method
  ,                                       !- Zone Dehumidification Design Supply Air Humidity Ratio {kgWater/kgDryAir}
  0.005,                                  !- Zone Cooling Design Supply Air Humidity Ratio Difference {kgWater/kgDryAir}
  HumidityRatioDifference,                !- Zone Latent Heating Design Supply Air Humidity Ratio Input Method
  ,                                       !- Zone Humidification Design Supply Air Humidity Ratio {kgWater/kgDryAir}
  0.005,                                  !- Zone Humidification Design Supply Air Humidity Ratio Difference {kgWater/kgDryAir}
  ,                                       !- Zone Humidistat Dehumidification Set Point Schedule Name
  ,                                       !- Zone Humidistat Humidification Set Point Schedule Name
  Coincident;                             !- Type of Space Sum to Use

DesignSpecification:OutdoorAir:SpaceList,
  DU_BT=Space Function_ST=Dwelling units general_FL=Building Story 1_SCHG 11 DSOA Space List, !- Name
  G S1 Apartment,                         !- Space Name 1
  Space Function Dwelling units general Ventilation; !- Space Design Specification Outdoor Air Object Name 1

Zone,
  DU_BT=Space Function_ST=Dwelling units general_FL=Building Story 1_SCHG 7, !- Name
  0,                                      !- Direction of Relative North {deg}
  23.1636701633044,                       !- X Origin {m}
  0,                                      !- Y Origin {m}
  0,                                      !- Z Origin {m}
  ,                                       !- Type
  1,                                      !- Multiplier
  ,                                       !- Ceiling Height {m}
  ,                                       !- Volume {m3}
  ,                                       !- Floor Area {m2}
  ,                                       !- Zone Inside Convection Algorithm
  ,                                       !- Zone Outside Convection Algorithm
  Yes;                                    !- Part of Total Floor Area

Space,
  Office,                                 !- Name
  DU_BT=Space Function_ST=Dwelling units general_FL=Building Story 1_SCHG 7, !- Zone Name
  ,                                       !- Ceiling Height {m}
  268.970642587126,                       !- Volume {m3}
  ,                                       !- Floor Area {m2}
  Space Function Dwelling units general;  !- Space Type

BuildingSurface:Detailed,
  g Ceilin SEA,                           !- Name
  Ceiling,                                !- Surface Type
  BTAP-Int-Wall,                          !- Construction Name
  DU_BT=Space Function_ST=Dwelling units general_FL=Building Story 1_SCHG 7, !- Zone Name
  Office,                                 !- Space Name
  Adiabatic,                              !- Outside Boundary Condition
  ,                                       !- Outside Boundary Condition Object
  NoSun,                                  !- Sun Exposure
  NoWind,                                 !- Wind Exposure
  ,                                       !- View Factor to Ground
  ,                                       !- Number of Vertices
  11.581835, 0, 3.047851,                 !- X,Y,Z Vertex 1 {m}
  11.581835, 7.619628, 3.047851,          !- X,Y,Z Vertex 2 {m}
  -1.6330430341327e-07, 7.619628, 3.047851, !- X,Y,Z Vertex 3 {m}
  -1.6330430341327e-07, 0, 3.047851;      !- X,Y,Z Vertex 4 {m}

BuildingSurface:Detailed,
  g EIWALL S2A Reversed,                  !- Name
  Wall,                                   !- Surface Type
  BTAP-Int-Wall,                          !- Construction Name
  DU_BT=Space Function_ST=Dwelling units general_FL=Building Story 1_SCHG 7, !- Zone Name
  Office,                                 !- Space Name
  Surface,                                !- Outside Boundary Condition
  g EIWALL S1A,                           !- Outside Boundary Condition Object
  NoSun,                                  !- Sun Exposure
  NoWind,                                 !- Wind Exposure
  ,                                       !- View Factor to Ground
  ,                                       !- Number of Vertices
  -1.63304301636913e-07, 7.619628, 3.047851, !- X,Y,Z Vertex 1 {m}
  -1.63304301636913e-07, 7.619628, 0,     !- X,Y,Z Vertex 2 {m}
  -1.63304301636913e-07, 0, 0,            !- X,Y,Z Vertex 3 {m}
  -1.63304301636913e-07, 0, 3.047851;     !- X,Y,Z Vertex 4 {m}

BuildingSurface:Detailed,
  g EWall SEA,                            !- Name
  Wall,                                   !- Surface Type
  BTAP-Ext-Wall-Mass:U-0.29,              !- Construction Name
  DU_BT=Space Function_ST=Dwelling units general_FL=Building Story 1_SCHG 7, !- Zone Name
  Office,                                 !- Space Name
  Outdoors,                               !- Outside Boundary Condition
  ,                                       !- Outside Boundary Condition Object
  SunExposed,                             !- Sun Exposure
  WindExposed,                            !- Wind Exposure
  ,                                       !- View Factor to Ground
  ,                                       !- Number of Vertices
  11.581835, 0, 3.047851,                 !- X,Y,Z Vertex 1 {m}
  11.581835, 0, 0,                        !- X,Y,Z Vertex 2 {m}
  11.581835, 7.619628, 0,                 !- X,Y,Z Vertex 3 {m}
  11.581835, 7.619628, 3.047851;          !- X,Y,Z Vertex 4 {m}

FenestrationSurface:Detailed,
  g EWall SEA_FixedWindow,                !- Name
  Window,                                 !- Surface Type
  BTAP-Ext-FixedWindow:U=0.280 SHGC=0.600, !- Construction Name
  g EWall SEA,                            !- Building Surface Name
  ,                                       !- Outside Boundary Condition Object
  ,                                       !- View Factor to Ground
  ,                                       !- Frame and Divider Name
  ,                                       !- Multiplier
  ,                                       !- Number of Vertices
  11.581835, 0.0254, 1.78374635793937,    !- X,Y,Z Vertex 1 {m}
  11.581835, 0.0254, 0.762,               !- X,Y,Z Vertex 2 {m}
  11.581835, 7.594228, 0.762,             !- X,Y,Z Vertex 3 {m}
  11.581835, 7.594228, 1.78374635793937;  !- X,Y,Z Vertex 4 {m}

BuildingSurface:Detailed,
  g GFloor SEA,                           !- Name
  Floor,                                  !- Surface Type
  BTAP-Grnd-Floor-Mass:U-0.757_std,       !- Construction Name
  DU_BT=Space Function_ST=Dwelling units general_FL=Building Story 1_SCHG 7, !- Zone Name
  Office,                                 !- Space Name
  Foundation,                             !- Outside Boundary Condition
  Bldg Kiva Foundation,                   !- Outside Boundary Condition Object
  NoSun,                                  !- Sun Exposure
  NoWind,                                 !- Wind Exposure
  ,                                       !- View Factor to Ground
  ,                                       !- Number of Vertices
  11.581835, 7.619628, 0,                 !- X,Y,Z Vertex 1 {m}
  11.581835, 0, 0,                        !- X,Y,Z Vertex 2 {m}
  0, 0, 0,                                !- X,Y,Z Vertex 3 {m}
  0, 7.619628, 0;                         !- X,Y,Z Vertex 4 {m}

SurfaceProperty:ExposedFoundationPerimeter,
  g GFloor SEA,                           !- Surface Name
  TotalExposedPerimeter,                  !- Exposed Perimeter Calculation Method
  19.201463,                              !- Total Exposed Perimeter {m}
  ;                                       !- Exposed Perimeter Fraction {dimensionless}

BuildingSurface:Detailed,
  g NIWall SEA,                           !- Name
  Wall,                                   !- Surface Type
  BTAP-Int-Wall,                          !- Construction Name
  DU_BT=Space Function_ST=Dwelling units general_FL=Building Story 1_SCHG 7, !- Zone Name
  Office,                                 !- Space Name
  Surface,                                !- Outside Boundary Condition
  g NIWall SEA Reversed,                  !- Outside Boundary Condition Object
  NoSun,                                  !- Sun Exposure
  NoWind,                                 !- Wind Exposure
  ,                                       !- View Factor to Ground
  ,                                       !- Number of Vertices
  11.581835, 7.619628, 3.047851,          !- X,Y,Z Vertex 1 {m}
  11.581835, 7.619628, 0,                 !- X,Y,Z Vertex 2 {m}
  -1.63304301636913e-07, 7.619628, 0,     !- X,Y,Z Vertex 3 {m}
  -1.63304301636913e-07, 7.619628, 3.047851; !- X,Y,Z Vertex 4 {m}

BuildingSurface:Detailed,
  g SWall SEA,                            !- Name
  Wall,                                   !- Surface Type
  BTAP-Ext-Wall-Mass:U-0.29,              !- Construction Name
  DU_BT=Space Function_ST=Dwelling units general_FL=Building Story 1_SCHG 7, !- Zone Name
  Office,                                 !- Space Name
  Outdoors,                               !- Outside Boundary Condition
  ,                                       !- Outside Boundary Condition Object
  SunExposed,                             !- Sun Exposure
  WindExposed,                            !- Wind Exposure
  ,                                       !- View Factor to Ground
  ,                                       !- Number of Vertices
  -1.63304301636913e-07, 0, 3.047851,     !- X,Y,Z Vertex 1 {m}
  -1.63304301636913e-07, 0, 0,            !- X,Y,Z Vertex 2 {m}
  11.581835, 0, 0,                        !- X,Y,Z Vertex 3 {m}
  11.581835, 0, 3.047851;                 !- X,Y,Z Vertex 4 {m}

FenestrationSurface:Detailed,
  g SWall SEA_FixedWindow,                !- Name
  Window,                                 !- Surface Type
  BTAP-Ext-FixedWindow:U=0.280 SHGC=0.600, !- Construction Name
  g SWall SEA,                            !- Building Surface Name
  ,                                       !- Outside Boundary Condition Object
  ,                                       !- View Factor to Ground
  ,                                       !- Frame and Divider Name
  ,                                       !- Multiplier
  ,                                       !- Number of Vertices
  0.0253998366956984, 0, 1.78140567858849, !- X,Y,Z Vertex 1 {m}
  0.0253998366956984, 0, 0.762,           !- X,Y,Z Vertex 2 {m}
  11.556435, 0, 0.762,                    !- X,Y,Z Vertex 3 {m}
  11.556435, 0, 1.78140567858849;         !- X,Y,Z Vertex 4 {m}

ZoneInfiltration:DesignFlowRate,
  Office Infiltration,                    !- Name
  Office,                                 !- Zone or ZoneList or Space or SpaceList Name
  Always On Discrete,                     !- Schedule Name
  Flow/ExteriorArea,                      !- Design Flow Rate Calculation Method
  ,                                       !- Design Flow Rate {m3/s}
  ,                                       !- Flow Rate per Floor Area {m3/s-m2}
  0.00447586595596712,                    !- Flow Rate per Exterior Surface Area {m3/s-m2}
  ,                                       !- Air Changes per Hour {1/hr}
  0,                                      !- Constant Term Coefficient
  0,                                      !- Temperature Term Coefficient
  0.224,                                  !- Velocity Term Coefficient
  0;                                      !- Velocity Squared Term Coefficient

ZoneControl:Thermostat,
  DU_BT=Space Function_ST=Dwelling units general_FL=Building Story 1_SCHG 7 Thermostat, !- Name
  DU_BT=Space Function_ST=Dwelling units general_FL=Building Story 1_SCHG 7, !- Zone or ZoneList Name
  DU_BT=Space Function_ST=Dwelling units general_FL=Building Story 1_SCHG 7 Thermostat Schedule, !- Control Type Schedule Name
  ThermostatSetpoint:DualSetpoint,        !- Control 1 Object Type
  Space Function Dwelling units general Thermostat 38, !- Control 1 Name
  ,                                       !- Control 2 Object Type
  ,                                       !- Control 2 Name
  ,                                       !- Control 3 Object Type
  ,                                       !- Control 3 Name
  ,                                       !- Control 4 Object Type
  ,                                       !- Control 4 Name
  0;                                      !- Temperature Difference Between Cutout And Setpoint {deltaC}

Schedule:Compact,
  DU_BT=Space Function_ST=Dwelling units general_FL=Building Story 1_SCHG 7 Thermostat Schedule, !- Name
  DU_BT=Space Function_ST=Dwelling units general_FL=Building Story 1_SCHG 7 Thermostat Schedule Type Limits, !- Schedule Type Limits Name
  Through: 12/31,                         !- Field 1
  For: AllDays,                           !- Field 2
  Until: 24:00,                           !- Field 3
  4;                                      !- Field 4

ScheduleTypeLimits,
  DU_BT=Space Function_ST=Dwelling units general_FL=Building Story 1_SCHG 7 Thermostat Schedule Type Limits, !- Name
  0,                                      !- Lower Limit Value {BasedOnField A3}
  4,                                      !- Upper Limit Value {BasedOnField A3}
  DISCRETE;                               !- Numeric Type

ThermostatSetpoint:DualSetpoint,
  Space Function Dwelling units general Thermostat 38, !- Name
  NECB-G-Thermostat Setpoint-Heating,     !- Heating Setpoint Temperature Schedule Name
  NECB-G-Thermostat Setpoint-Cooling;     !- Cooling Setpoint Temperature Schedule Name

ZoneHVAC:EquipmentConnections,
  DU_BT=Space Function_ST=Dwelling units general_FL=Building Story 1_SCHG 7, !- Zone Name
  DU_BT=Space Function_ST=Dwelling units general_FL=Building Story 1_SCHG 7 Equipment List, !- Zone Conditioning Equipment List Name
  DU_BT=Space Function_ST=Dwelling units general_FL=Building Story 1_SCHG 7 Inlet Node List, !- Zone Air Inlet Node or NodeList Name
  DU_BT=Space Function_ST=Dwelling units general_FL=Building Story 1_SCHG 7 Exhaust Node List, !- Zone Air Exhaust Node or NodeList Name
  DU_BT=Space Function_ST=Dwelling units general_FL=Building Story 1_SCHG 7 Zone Air Node, !- Zone Air Node Name
  DU_BT=Space Function_ST=Dwelling units general_FL=Building Story 1_SCHG 7 Return Node List; !- Zone Return Air Node or NodeList Name

NodeList,
  DU_BT=Space Function_ST=Dwelling units general_FL=Building Story 1_SCHG 7 Inlet Node List, !- Name
  Air Terminal Single Duct Constant Volume No Reheat 4 Outlet Air Node, !- Node Name 1
  ZoneHVACPackagedTerminalAirConditioner 3 Outlet Air Node; !- Node Name 2

NodeList,
  DU_BT=Space Function_ST=Dwelling units general_FL=Building Story 1_SCHG 7 Exhaust Node List, !- Name
  ZoneHVACPackagedTerminalAirConditioner 3 Inlet Air Node; !- Node Name 1

NodeList,
  DU_BT=Space Function_ST=Dwelling units general_FL=Building Story 1_SCHG 7 Return Node List, !- Name
  DU_BT=Space Function_ST=Dwelling units general_FL=Building Story 1_SCHG 7 Return Air Node; !- Node Name 1

AirTerminal:SingleDuct:ConstantVolume:NoReheat,
  Air Terminal Single Duct Constant Volume No Reheat 4, !- Name
  Always On Discrete,                     !- Availability Schedule Name
  Air Terminal Single Duct Constant Volume No Reheat 4 Inlet Air Node, !- Air Inlet Node Name
  Air Terminal Single Duct Constant Volume No Reheat 4 Outlet Air Node, !- Air Outlet Node Name
  AutoSize;                               !- Maximum Air Flow Rate {m3/s}

ZoneHVAC:AirDistributionUnit,
  ADU Air Terminal Single Duct Constant Volume No Reheat 4, !- Name
  Air Terminal Single Duct Constant Volume No Reheat 4 Outlet Air Node, !- Air Distribution Unit Outlet Node Name
  AirTerminal:SingleDuct:ConstantVolume:NoReheat, !- Air Terminal Object Type
  Air Terminal Single Duct Constant Volume No Reheat 4; !- Air Terminal Name

ZoneHVAC:PackagedTerminalAirConditioner,
  ZoneHVACPackagedTerminalAirConditioner 3, !- Name
  Always On Discrete,                     !- Availability Schedule Name
  ZoneHVACPackagedTerminalAirConditioner 3 Inlet Air Node, !- Air Inlet Node Name
  ZoneHVACPackagedTerminalAirConditioner 3 Outlet Air Node, !- Air Outlet Node Name
  OutdoorAir:Mixer,                       !- Outdoor Air Mixer Object Type
  ZoneHVACPackagedTerminalAirConditioner 3 OA Mixer, !- Outdoor Air Mixer Name
  Autosize,                               !- Cooling Supply Air Flow Rate {m3/s}
  Autosize,                               !- Heating Supply Air Flow Rate {m3/s}
  Autosize,                               !- No Load Supply Air Flow Rate {m3/s}
  Yes,                                    !- No Load Supply Air Flow Rate Control Set To Low Speed
  1e-06,                                  !- Cooling Outdoor Air Flow Rate {m3/s}
  1e-06,                                  !- Heating Outdoor Air Flow Rate {m3/s}
  1e-06,                                  !- No Load Outdoor Air Flow Rate {m3/s}
  Fan:OnOff,                              !- Supply Air Fan Object Type
  FanOnOff 3,                             !- Supply Air Fan Name
  Coil:Heating:Electric,                  !- Heating Coil Object Type
  CoilHeatingElectric 4,                  !- Heating Coil Name
  Coil:Cooling:DX:SingleSpeed,            !- Cooling Coil Object Type
  CoilCoolingDXSingleSpeed_PTAC 3 21kBtu/hr 9.5EER, !- Cooling Coil Name
  DrawThrough,                            !- Fan Placement
  Always Off Discrete;                    !- Supply Air Fan Operating Mode Schedule Name

OutdoorAir:Mixer,
  ZoneHVACPackagedTerminalAirConditioner 3 OA Mixer, !- Name
  ZoneHVACPackagedTerminalAirConditioner 3 Mixed Air Node, !- Mixed Air Node Name
  ZoneHVACPackagedTerminalAirConditioner 3 OA Node, !- Outdoor Air Stream Node Name
  ZoneHVACPackagedTerminalAirConditioner 3 Relief Air Node, !- Relief Air Stream Node Name
  ZoneHVACPackagedTerminalAirConditioner 3 Inlet Air Node; !- Return Air Stream Node Name

OutdoorAir:NodeList,
  ZoneHVACPackagedTerminalAirConditioner 3 OA Node; !- Node or NodeList Name 1

Fan:OnOff,
  FanOnOff 3,                             !- Name
  Always On Discrete,                     !- Availability Schedule Name
  0.39975,                                !- Fan Total Efficiency
  331.2882503,                            !- Pressure Rise {Pa}
  Autosize,                               !- Maximum Flow Rate {m3/s}
  0.615,                                  !- Motor Efficiency
  1,                                      !- Motor In Airstream Fraction
  ZoneHVACPackagedTerminalAirConditioner 3 Heating Coil Outlet Node, !- Air Inlet Node Name
  ZoneHVACPackagedTerminalAirConditioner 3 Outlet Air Node, !- Air Outlet Node Name
  Fan On Off Power Curve 3,               !- Fan Power Ratio Function of Speed Ratio Curve Name
  Fan On Off Efficiency Curve 3,          !- Fan Efficiency Ratio Function of Speed Ratio Curve Name
  General;                                !- End-Use Subcategory

Curve:Exponent,
  Fan On Off Power Curve 3,               !- Name
  1,                                      !- Coefficient1 Constant
  0,                                      !- Coefficient2 Constant
  0,                                      !- Coefficient3 Constant
  0,                                      !- Minimum Value of x {BasedOnField A2}
  1;                                      !- Maximum Value of x {BasedOnField A2}

Curve:Cubic,
  Fan On Off Efficiency Curve 3,          !- Name
  1,                                      !- Coefficient1 Constant
  0,                                      !- Coefficient2 x
  0,                                      !- Coefficient3 x**2
  0,                                      !- Coefficient4 x**3
  0,                                      !- Minimum Value of x {BasedOnField A2}
  1;                                      !- Maximum Value of x {BasedOnField A2}

Coil:Heating:Electric,
  CoilHeatingElectric 4,                  !- Name
  Always Off Discrete,                    !- Availability Schedule Name
  1,                                      !- Efficiency
  Autosize,                               !- Nominal Capacity {W}
  ZoneHVACPackagedTerminalAirConditioner 3 Cooling Coil Outlet Node, !- Air Inlet Node Name
  ZoneHVACPackagedTerminalAirConditioner 3 Heating Coil Outlet Node; !- Air Outlet Node Name

Coil:Cooling:DX:SingleSpeed,
  CoilCoolingDXSingleSpeed_PTAC 3 21kBtu/hr 9.5EER, !- Name
  Always On Discrete,                     !- Availability Schedule Name
  Autosize,                               !- Gross Rated Total Cooling Capacity {W}
  Autosize,                               !- Gross Rated Sensible Heat Ratio
  3.30019905299558,                       !- Gross Rated Cooling COP {W/W}
  Autosize,                               !- Rated Air Flow Rate {m3/s}
  773.3,                                  !- Rated Evaporator Fan Power Per Volume Flow Rate 2017 {W/(m3/s)}
  934.4,                                  !- Rated Evaporator Fan Power Per Volume Flow Rate 2023 {W/(m3/s)}
  ZoneHVACPackagedTerminalAirConditioner 3 Mixed Air Node, !- Air Inlet Node Name
  ZoneHVACPackagedTerminalAirConditioner 3 Cooling Coil Outlet Node, !- Air Outlet Node Name
  DXCOOL-NECB2011-REF-CAPFT,              !- Total Cooling Capacity Function of Temperature Curve Name
  DXCOOL-NECB2011-REF-CAPFFLOW,           !- Total Cooling Capacity Function of Flow Fraction Curve Name
  DXCOOL-NECB2011-REF-COOLEIRFT,          !- Energy Input Ratio Function of Temperature Curve Name
  DXCOOL-NECB2011-REF-COOLEIRFFLOW,       !- Energy Input Ratio Function of Flow Fraction Curve Name
  DXCOOL-NECB2011-REF-COOLPLFFPLR,        !- Part Load Fraction Correlation Curve Name
  -25,                                    !- Minimum Outdoor Dry-Bulb Temperature for Compressor Operation {C}
  0,                                      !- Nominal Time for Condensate Removal to Begin {s}
  0,                                      !- Ratio of Initial Moisture Evaporation Rate and Steady State Latent Capacity {dimensionless}
  0,                                      !- Maximum Cycling Rate {cycles/hr}
  0,                                      !- Latent Capacity Time Constant {s}
  ,                                       !- Condenser Air Inlet Node Name
  AirCooled,                              !- Condenser Type
  0.9,                                    !- Evaporative Condenser Effectiveness {dimensionless}
  Autosize,                               !- Evaporative Condenser Air Flow Rate {m3/s}
  Autosize,                               !- Evaporative Condenser Pump Rated Power Consumption {W}
  1e-06,                                  !- Crankcase Heater Capacity {W}
  ,                                       !- Crankcase Heater Capacity Function of Temperature Curve Name
  10,                                     !- Maximum Outdoor Dry-Bulb Temperature for Crankcase Heater Operation {C}
  ,                                       !- Supply Water Storage Tank Name
  ,                                       !- Condensate Collection Water Storage Tank Name
  0,                                      !- Basin Heater Capacity {W/K}
  2;                                      !- Basin Heater Setpoint Temperature {C}

ZoneHVAC:Baseboard:Convective:Electric,
  ZoneHVACBaseboardConvectiveElectric 3,  !- Name
  Always On Discrete,                     !- Availability Schedule Name
  ,                                       !- Heating Design Capacity Method
  Autosize,                               !- Heating Design Capacity {W}
  ,                                       !- Heating Design Capacity Per Floor Area {W/m2}
  ,                                       !- Fraction of Autosized Heating Design Capacity
  1;                                      !- Efficiency

ZoneHVAC:EquipmentList,
  DU_BT=Space Function_ST=Dwelling units general_FL=Building Story 1_SCHG 7 Equipment List, !- Name
  SequentialLoad,                         !- Load Distribution Scheme
  ZoneHVAC:AirDistributionUnit,           !- Zone Equipment Object Type 1
  ADU Air Terminal Single Duct Constant Volume No Reheat 4, !- Zone Equipment Name 1
  1,                                      !- Zone Equipment Cooling Sequence 1
  1,                                      !- Zone Equipment Heating or No-Load Sequence 1
  ,                                       !- Zone Equipment Sequential Cooling Fraction Schedule Name 1
  ,                                       !- Zone Equipment Sequential Heating Fraction Schedule Name 1
  ZoneHVAC:PackagedTerminalAirConditioner, !- Zone Equipment Object Type 2
  ZoneHVACPackagedTerminalAirConditioner 3, !- Zone Equipment Name 2
  2,                                      !- Zone Equipment Cooling Sequence 2
  2,                                      !- Zone Equipment Heating or No-Load Sequence 2
  ,                                       !- Zone Equipment Sequential Cooling Fraction Schedule Name 2
  ,                                       !- Zone Equipment Sequential Heating Fraction Schedule Name 2
  ZoneHVAC:Baseboard:Convective:Electric, !- Zone Equipment Object Type 3
  ZoneHVACBaseboardConvectiveElectric 3,  !- Zone Equipment Name 3
  3,                                      !- Zone Equipment Cooling Sequence 3
  3,                                      !- Zone Equipment Heating or No-Load Sequence 3
  ,                                       !- Zone Equipment Sequential Cooling Fraction Schedule Name 3
  ;                                       !- Zone Equipment Sequential Heating Fraction Schedule Name 3

Sizing:Zone,
  DU_BT=Space Function_ST=Dwelling units general_FL=Building Story 1_SCHG 7, !- Zone or ZoneList Name
  TemperatureDifference,                  !- Zone Cooling Design Supply Air Temperature Input Method
  13,                                     !- Zone Cooling Design Supply Air Temperature {C}
  11,                                     !- Zone Cooling Design Supply Air Temperature Difference {deltaC}
  TemperatureDifference,                  !- Zone Heating Design Supply Air Temperature Input Method
  43,                                     !- Zone Heating Design Supply Air Temperature {C}
  21,                                     !- Zone Heating Design Supply Air Temperature Difference {deltaC}
  0.0085,                                 !- Zone Cooling Design Supply Air Humidity Ratio {kgWater/kgDryAir}
  0.008,                                  !- Zone Heating Design Supply Air Humidity Ratio {kgWater/kgDryAir}
  DU_BT=Space Function_ST=Dwelling units general_FL=Building Story 1_SCHG 7 DSOA Space List, !- Design Specification Outdoor Air Object Name
  1.3,                                    !- Zone Heating Sizing Factor
  1.1,                                    !- Zone Cooling Sizing Factor
  DesignDay,                              !- Cooling Design Air Flow Method
  0,                                      !- Cooling Design Air Flow Rate {m3/s}
  0.000762,                               !- Cooling Minimum Air Flow per Zone Floor Area {m3/s-m2}
  0,                                      !- Cooling Minimum Air Flow {m3/s}
  0,                                      !- Cooling Minimum Air Flow Fraction
  DesignDay,                              !- Heating Design Air Flow Method
  0,                                      !- Heating Design Air Flow Rate {m3/s}
  0.002032,                               !- Heating Maximum Air Flow per Zone Floor Area {m3/s-m2}
  0.1415762,                              !- Heating Maximum Air Flow {m3/s}
  0.3,                                    !- Heating Maximum Air Flow Fraction
  ,                                       !- Design Specification Zone Air Distribution Object Name
  No,                                     !- Account for Dedicated Outdoor Air System
  ,                                       !- Dedicated Outdoor Air System Control Strategy
  ,                                       !- Dedicated Outdoor Air Low Setpoint Temperature for Design {C}
  ,                                       !- Dedicated Outdoor Air High Setpoint Temperature for Design {C}
  Sensible Load Only No Latent Load,      !- Zone Load Sizing Method
  HumidityRatioDifference,                !- Zone Latent Cooling Design Supply Air Humidity Ratio Input Method
  ,                                       !- Zone Dehumidification Design Supply Air Humidity Ratio {kgWater/kgDryAir}
  0.005,                                  !- Zone Cooling Design Supply Air Humidity Ratio Difference {kgWater/kgDryAir}
  HumidityRatioDifference,                !- Zone Latent Heating Design Supply Air Humidity Ratio Input Method
  ,                                       !- Zone Humidification Design Supply Air Humidity Ratio {kgWater/kgDryAir}
  0.005,                                  !- Zone Humidification Design Supply Air Humidity Ratio Difference {kgWater/kgDryAir}
  ,                                       !- Zone Humidistat Dehumidification Set Point Schedule Name
  ,                                       !- Zone Humidistat Humidification Set Point Schedule Name
  Coincident;                             !- Type of Space Sum to Use

DesignSpecification:OutdoorAir:SpaceList,
  DU_BT=Space Function_ST=Dwelling units general_FL=Building Story 1_SCHG 7 DSOA Space List, !- Name
  Office,                                 !- Space Name 1
  Space Function Dwelling units general Ventilation; !- Space Design Specification Outdoor Air Object Name 1

Zone,
  DU_BT=Space Function_ST=Dwelling units general_FL=Building Story 1_SCHG 8, !- Name
  0,                                      !- Direction of Relative North {deg}
  0,                                      !- X Origin {m}
  9.29594664423115,                       !- Y Origin {m}
  0,                                      !- Z Origin {m}
  ,                                       !- Type
  1,                                      !- Multiplier
  ,                                       !- Ceiling Height {m}
  ,                                       !- Volume {m3}
  ,                                       !- Floor Area {m2}
  ,                                       !- Zone Inside Convection Algorithm
  ,                                       !- Zone Outside Convection Algorithm
  Yes;                                    !- Part of Total Floor Area

Space,
  G NW Apartment,                         !- Name
  DU_BT=Space Function_ST=Dwelling units general_FL=Building Story 1_SCHG 8, !- Zone Name
  ,                                       !- Ceiling Height {m}
  268.970649348193,                       !- Volume {m3}
  ,                                       !- Floor Area {m2}
  Space Function Dwelling units general;  !- Space Type

BuildingSurface:Detailed,
  g Ceilin NWA,                           !- Name
  Ceiling,                                !- Surface Type
  BTAP-Int-Wall,                          !- Construction Name
  DU_BT=Space Function_ST=Dwelling units general_FL=Building Story 1_SCHG 8, !- Zone Name
  G NW Apartment,                         !- Space Name
  Adiabatic,                              !- Outside Boundary Condition
  ,                                       !- Outside Boundary Condition Object
  NoSun,                                  !- Sun Exposure
  NoWind,                                 !- Wind Exposure
  ,                                       !- View Factor to Ground
  ,                                       !- Number of Vertices
  11.581835, 0, 3.04785135876431,         !- X,Y,Z Vertex 1 {m}
  11.581835, 7.619628, 3.04785135876431,  !- X,Y,Z Vertex 2 {m}
  0, 7.619628, 3.04785135876431,          !- X,Y,Z Vertex 3 {m}
  0, 0, 3.04785135876431;                 !- X,Y,Z Vertex 4 {m}

BuildingSurface:Detailed,
  g EIWALL NWA,                           !- Name
  Wall,                                   !- Surface Type
  BTAP-Int-Wall,                          !- Construction Name
  DU_BT=Space Function_ST=Dwelling units general_FL=Building Story 1_SCHG 8, !- Zone Name
  G NW Apartment,                         !- Space Name
  Surface,                                !- Outside Boundary Condition
  g EIWALL NWA Reversed,                  !- Outside Boundary Condition Object
  NoSun,                                  !- Sun Exposure
  NoWind,                                 !- Wind Exposure
  ,                                       !- View Factor to Ground
  ,                                       !- Number of Vertices
  11.581835, 0, 3.047851,                 !- X,Y,Z Vertex 1 {m}
  11.581835, 0, 0,                        !- X,Y,Z Vertex 2 {m}
  11.581835, 7.619628, 0,                 !- X,Y,Z Vertex 3 {m}
  11.581835, 7.619628, 3.047851;          !- X,Y,Z Vertex 4 {m}

BuildingSurface:Detailed,
  g GFloor NWA,                           !- Name
  Floor,                                  !- Surface Type
  BTAP-Grnd-Floor-Mass:U-0.757_std,       !- Construction Name
  DU_BT=Space Function_ST=Dwelling units general_FL=Building Story 1_SCHG 8, !- Zone Name
  G NW Apartment,                         !- Space Name
  Foundation,                             !- Outside Boundary Condition
  Bldg Kiva Foundation,                   !- Outside Boundary Condition Object
  NoSun,                                  !- Sun Exposure
  NoWind,                                 !- Wind Exposure
  ,                                       !- View Factor to Ground
  ,                                       !- Number of Vertices
  11.581835, 7.619628, 0,                 !- X,Y,Z Vertex 1 {m}
  11.581835, 0, 0,                        !- X,Y,Z Vertex 2 {m}
  0, 0, 0,                                !- X,Y,Z Vertex 3 {m}
  0, 7.619628, 0;                         !- X,Y,Z Vertex 4 {m}

SurfaceProperty:ExposedFoundationPerimeter,
  g GFloor NWA,                           !- Surface Name
  TotalExposedPerimeter,                  !- Exposed Perimeter Calculation Method
  19.201463,                              !- Total Exposed Perimeter {m}
  ;                                       !- Exposed Perimeter Fraction {dimensionless}

BuildingSurface:Detailed,
  g NWall NWA,                            !- Name
  Wall,                                   !- Surface Type
  BTAP-Ext-Wall-Mass:U-0.29,              !- Construction Name
  DU_BT=Space Function_ST=Dwelling units general_FL=Building Story 1_SCHG 8, !- Zone Name
  G NW Apartment,                         !- Space Name
  Outdoors,                               !- Outside Boundary Condition
  ,                                       !- Outside Boundary Condition Object
  SunExposed,                             !- Sun Exposure
  WindExposed,                            !- Wind Exposure
  ,                                       !- View Factor to Ground
  ,                                       !- Number of Vertices
  11.581835, 7.619628, 3.047851,          !- X,Y,Z Vertex 1 {m}
  11.581835, 7.619628, 0,                 !- X,Y,Z Vertex 2 {m}
  0, 7.619628, 0,                         !- X,Y,Z Vertex 3 {m}
  0, 7.619628, 3.047851;                  !- X,Y,Z Vertex 4 {m}

FenestrationSurface:Detailed,
  g NWall NWA_FixedWindow,                !- Name
  Window,                                 !- Surface Type
  BTAP-Ext-FixedWindow:U=0.280 SHGC=0.600, !- Construction Name
  g NWall NWA,                            !- Building Surface Name
  ,                                       !- Outside Boundary Condition Object
  ,                                       !- View Factor to Ground
  ,                                       !- Frame and Divider Name
  ,                                       !- Multiplier
  ,                                       !- Number of Vertices
  11.556435, 7.619628, 1.78140567865181,  !- X,Y,Z Vertex 1 {m}
  11.556435, 7.619628, 0.762,             !- X,Y,Z Vertex 2 {m}
  0.0254000000000012, 7.619628, 0.762,    !- X,Y,Z Vertex 3 {m}
  0.0254000000000012, 7.619628, 1.78140567865181; !- X,Y,Z Vertex 4 {m}

BuildingSurface:Detailed,
  g SIWall NWA,                           !- Name
  Wall,                                   !- Surface Type
  BTAP-Int-Wall,                          !- Construction Name
  DU_BT=Space Function_ST=Dwelling units general_FL=Building Story 1_SCHG 8, !- Zone Name
  G NW Apartment,                         !- Space Name
  Surface,                                !- Outside Boundary Condition
  g SIWall NWA Reversed,                  !- Outside Boundary Condition Object
  NoSun,                                  !- Sun Exposure
  NoWind,                                 !- Wind Exposure
  ,                                       !- View Factor to Ground
  ,                                       !- Number of Vertices
  0, 0, 3.047851,                         !- X,Y,Z Vertex 1 {m}
  0, 0, 0,                                !- X,Y,Z Vertex 2 {m}
  11.581835, 0, 0,                        !- X,Y,Z Vertex 3 {m}
  11.581835, 0, 3.047851;                 !- X,Y,Z Vertex 4 {m}

BuildingSurface:Detailed,
  g WWall NWA,                            !- Name
  Wall,                                   !- Surface Type
  BTAP-Ext-Wall-Mass:U-0.29,              !- Construction Name
  DU_BT=Space Function_ST=Dwelling units general_FL=Building Story 1_SCHG 8, !- Zone Name
  G NW Apartment,                         !- Space Name
  Outdoors,                               !- Outside Boundary Condition
  ,                                       !- Outside Boundary Condition Object
  SunExposed,                             !- Sun Exposure
  WindExposed,                            !- Wind Exposure
  ,                                       !- View Factor to Ground
  ,                                       !- Number of Vertices
  0, 7.619628, 3.047851,                  !- X,Y,Z Vertex 1 {m}
  0, 7.619628, 0,                         !- X,Y,Z Vertex 2 {m}
  0, 0, 0,                                !- X,Y,Z Vertex 3 {m}
  0, 0, 3.047851;                         !- X,Y,Z Vertex 4 {m}

FenestrationSurface:Detailed,
  g WWall NWA_FixedWindow,                !- Name
  Window,                                 !- Surface Type
  BTAP-Ext-FixedWindow:U=0.280 SHGC=0.600, !- Construction Name
  g WWall NWA,                            !- Building Surface Name
  ,                                       !- Outside Boundary Condition Object
  ,                                       !- View Factor to Ground
  ,                                       !- Frame and Divider Name
  ,                                       !- Multiplier
  ,                                       !- Number of Vertices
  0, 7.594228, 1.78374635793937,          !- X,Y,Z Vertex 1 {m}
  0, 7.594228, 0.762,                     !- X,Y,Z Vertex 2 {m}
  0, 0.0253999999999994, 0.762,           !- X,Y,Z Vertex 3 {m}
  0, 0.0253999999999994, 1.78374635793937; !- X,Y,Z Vertex 4 {m}

ZoneInfiltration:DesignFlowRate,
  G NW Apartment Infiltration,            !- Name
  G NW Apartment,                         !- Zone or ZoneList or Space or SpaceList Name
  Always On Discrete,                     !- Schedule Name
  Flow/ExteriorArea,                      !- Design Flow Rate Calculation Method
  ,                                       !- Design Flow Rate {m3/s}
  ,                                       !- Flow Rate per Floor Area {m3/s-m2}
  0.00447586595596712,                    !- Flow Rate per Exterior Surface Area {m3/s-m2}
  ,                                       !- Air Changes per Hour {1/hr}
  0,                                      !- Constant Term Coefficient
  0,                                      !- Temperature Term Coefficient
  0.224,                                  !- Velocity Term Coefficient
  0;                                      !- Velocity Squared Term Coefficient

ZoneControl:Thermostat,
  DU_BT=Space Function_ST=Dwelling units general_FL=Building Story 1_SCHG 8 Thermostat, !- Name
  DU_BT=Space Function_ST=Dwelling units general_FL=Building Story 1_SCHG 8, !- Zone or ZoneList Name
  DU_BT=Space Function_ST=Dwelling units general_FL=Building Story 1_SCHG 8 Thermostat Schedule, !- Control Type Schedule Name
  ThermostatSetpoint:DualSetpoint,        !- Control 1 Object Type
  Space Function Dwelling units general Thermostat 44, !- Control 1 Name
  ,                                       !- Control 2 Object Type
  ,                                       !- Control 2 Name
  ,                                       !- Control 3 Object Type
  ,                                       !- Control 3 Name
  ,                                       !- Control 4 Object Type
  ,                                       !- Control 4 Name
  0;                                      !- Temperature Difference Between Cutout And Setpoint {deltaC}

Schedule:Compact,
  DU_BT=Space Function_ST=Dwelling units general_FL=Building Story 1_SCHG 8 Thermostat Schedule, !- Name
  DU_BT=Space Function_ST=Dwelling units general_FL=Building Story 1_SCHG 8 Thermostat Schedule Type Limits, !- Schedule Type Limits Name
  Through: 12/31,                         !- Field 1
  For: AllDays,                           !- Field 2
  Until: 24:00,                           !- Field 3
  4;                                      !- Field 4

ScheduleTypeLimits,
  DU_BT=Space Function_ST=Dwelling units general_FL=Building Story 1_SCHG 8 Thermostat Schedule Type Limits, !- Name
  0,                                      !- Lower Limit Value {BasedOnField A3}
  4,                                      !- Upper Limit Value {BasedOnField A3}
  DISCRETE;                               !- Numeric Type

ThermostatSetpoint:DualSetpoint,
  Space Function Dwelling units general Thermostat 44, !- Name
  NECB-G-Thermostat Setpoint-Heating,     !- Heating Setpoint Temperature Schedule Name
  NECB-G-Thermostat Setpoint-Cooling;     !- Cooling Setpoint Temperature Schedule Name

ZoneHVAC:EquipmentConnections,
  DU_BT=Space Function_ST=Dwelling units general_FL=Building Story 1_SCHG 8, !- Zone Name
  DU_BT=Space Function_ST=Dwelling units general_FL=Building Story 1_SCHG 8 Equipment List, !- Zone Conditioning Equipment List Name
  DU_BT=Space Function_ST=Dwelling units general_FL=Building Story 1_SCHG 8 Inlet Node List, !- Zone Air Inlet Node or NodeList Name
  DU_BT=Space Function_ST=Dwelling units general_FL=Building Story 1_SCHG 8 Exhaust Node List, !- Zone Air Exhaust Node or NodeList Name
  DU_BT=Space Function_ST=Dwelling units general_FL=Building Story 1_SCHG 8 Zone Air Node, !- Zone Air Node Name
  DU_BT=Space Function_ST=Dwelling units general_FL=Building Story 1_SCHG 8 Return Node List; !- Zone Return Air Node or NodeList Name

NodeList,
  DU_BT=Space Function_ST=Dwelling units general_FL=Building Story 1_SCHG 8 Inlet Node List, !- Name
  Air Terminal Single Duct Constant Volume No Reheat 5 Outlet Air Node, !- Node Name 1
  ZoneHVACPackagedTerminalAirConditioner 4 Outlet Air Node; !- Node Name 2

NodeList,
  DU_BT=Space Function_ST=Dwelling units general_FL=Building Story 1_SCHG 8 Exhaust Node List, !- Name
  ZoneHVACPackagedTerminalAirConditioner 4 Inlet Air Node; !- Node Name 1

NodeList,
  DU_BT=Space Function_ST=Dwelling units general_FL=Building Story 1_SCHG 8 Return Node List, !- Name
  DU_BT=Space Function_ST=Dwelling units general_FL=Building Story 1_SCHG 8 Return Air Node; !- Node Name 1

AirTerminal:SingleDuct:ConstantVolume:NoReheat,
  Air Terminal Single Duct Constant Volume No Reheat 5, !- Name
  Always On Discrete,                     !- Availability Schedule Name
  Air Terminal Single Duct Constant Volume No Reheat 5 Inlet Air Node, !- Air Inlet Node Name
  Air Terminal Single Duct Constant Volume No Reheat 5 Outlet Air Node, !- Air Outlet Node Name
  AutoSize;                               !- Maximum Air Flow Rate {m3/s}

ZoneHVAC:AirDistributionUnit,
  ADU Air Terminal Single Duct Constant Volume No Reheat 5, !- Name
  Air Terminal Single Duct Constant Volume No Reheat 5 Outlet Air Node, !- Air Distribution Unit Outlet Node Name
  AirTerminal:SingleDuct:ConstantVolume:NoReheat, !- Air Terminal Object Type
  Air Terminal Single Duct Constant Volume No Reheat 5; !- Air Terminal Name

ZoneHVAC:PackagedTerminalAirConditioner,
  ZoneHVACPackagedTerminalAirConditioner 4, !- Name
  Always On Discrete,                     !- Availability Schedule Name
  ZoneHVACPackagedTerminalAirConditioner 4 Inlet Air Node, !- Air Inlet Node Name
  ZoneHVACPackagedTerminalAirConditioner 4 Outlet Air Node, !- Air Outlet Node Name
  OutdoorAir:Mixer,                       !- Outdoor Air Mixer Object Type
  ZoneHVACPackagedTerminalAirConditioner 4 OA Mixer, !- Outdoor Air Mixer Name
  Autosize,                               !- Cooling Supply Air Flow Rate {m3/s}
  Autosize,                               !- Heating Supply Air Flow Rate {m3/s}
  Autosize,                               !- No Load Supply Air Flow Rate {m3/s}
  Yes,                                    !- No Load Supply Air Flow Rate Control Set To Low Speed
  1e-06,                                  !- Cooling Outdoor Air Flow Rate {m3/s}
  1e-06,                                  !- Heating Outdoor Air Flow Rate {m3/s}
  1e-06,                                  !- No Load Outdoor Air Flow Rate {m3/s}
  Fan:OnOff,                              !- Supply Air Fan Object Type
  FanOnOff 4,                             !- Supply Air Fan Name
  Coil:Heating:Electric,                  !- Heating Coil Object Type
  CoilHeatingElectric 5,                  !- Heating Coil Name
  Coil:Cooling:DX:SingleSpeed,            !- Cooling Coil Object Type
  CoilCoolingDXSingleSpeed_PTAC 4 21kBtu/hr 9.5EER, !- Cooling Coil Name
  DrawThrough,                            !- Fan Placement
  Always Off Discrete;                    !- Supply Air Fan Operating Mode Schedule Name

OutdoorAir:Mixer,
  ZoneHVACPackagedTerminalAirConditioner 4 OA Mixer, !- Name
  ZoneHVACPackagedTerminalAirConditioner 4 Mixed Air Node, !- Mixed Air Node Name
  ZoneHVACPackagedTerminalAirConditioner 4 OA Node, !- Outdoor Air Stream Node Name
  ZoneHVACPackagedTerminalAirConditioner 4 Relief Air Node, !- Relief Air Stream Node Name
  ZoneHVACPackagedTerminalAirConditioner 4 Inlet Air Node; !- Return Air Stream Node Name

OutdoorAir:NodeList,
  ZoneHVACPackagedTerminalAirConditioner 4 OA Node; !- Node or NodeList Name 1

Fan:OnOff,
  FanOnOff 4,                             !- Name
  Always On Discrete,                     !- Availability Schedule Name
  0.39975,                                !- Fan Total Efficiency
  331.2882503,                            !- Pressure Rise {Pa}
  Autosize,                               !- Maximum Flow Rate {m3/s}
  0.615,                                  !- Motor Efficiency
  1,                                      !- Motor In Airstream Fraction
  ZoneHVACPackagedTerminalAirConditioner 4 Heating Coil Outlet Node, !- Air Inlet Node Name
  ZoneHVACPackagedTerminalAirConditioner 4 Outlet Air Node, !- Air Outlet Node Name
  Fan On Off Power Curve 4,               !- Fan Power Ratio Function of Speed Ratio Curve Name
  Fan On Off Efficiency Curve 4,          !- Fan Efficiency Ratio Function of Speed Ratio Curve Name
  General;                                !- End-Use Subcategory

Curve:Exponent,
  Fan On Off Power Curve 4,               !- Name
  1,                                      !- Coefficient1 Constant
  0,                                      !- Coefficient2 Constant
  0,                                      !- Coefficient3 Constant
  0,                                      !- Minimum Value of x {BasedOnField A2}
  1;                                      !- Maximum Value of x {BasedOnField A2}

Curve:Cubic,
  Fan On Off Efficiency Curve 4,          !- Name
  1,                                      !- Coefficient1 Constant
  0,                                      !- Coefficient2 x
  0,                                      !- Coefficient3 x**2
  0,                                      !- Coefficient4 x**3
  0,                                      !- Minimum Value of x {BasedOnField A2}
  1;                                      !- Maximum Value of x {BasedOnField A2}

Coil:Heating:Electric,
  CoilHeatingElectric 5,                  !- Name
  Always Off Discrete,                    !- Availability Schedule Name
  1,                                      !- Efficiency
  Autosize,                               !- Nominal Capacity {W}
  ZoneHVACPackagedTerminalAirConditioner 4 Cooling Coil Outlet Node, !- Air Inlet Node Name
  ZoneHVACPackagedTerminalAirConditioner 4 Heating Coil Outlet Node; !- Air Outlet Node Name

Coil:Cooling:DX:SingleSpeed,
  CoilCoolingDXSingleSpeed_PTAC 4 21kBtu/hr 9.5EER, !- Name
  Always On Discrete,                     !- Availability Schedule Name
  Autosize,                               !- Gross Rated Total Cooling Capacity {W}
  Autosize,                               !- Gross Rated Sensible Heat Ratio
  3.30019905299558,                       !- Gross Rated Cooling COP {W/W}
  Autosize,                               !- Rated Air Flow Rate {m3/s}
  773.3,                                  !- Rated Evaporator Fan Power Per Volume Flow Rate 2017 {W/(m3/s)}
  934.4,                                  !- Rated Evaporator Fan Power Per Volume Flow Rate 2023 {W/(m3/s)}
  ZoneHVACPackagedTerminalAirConditioner 4 Mixed Air Node, !- Air Inlet Node Name
  ZoneHVACPackagedTerminalAirConditioner 4 Cooling Coil Outlet Node, !- Air Outlet Node Name
  DXCOOL-NECB2011-REF-CAPFT,              !- Total Cooling Capacity Function of Temperature Curve Name
  DXCOOL-NECB2011-REF-CAPFFLOW,           !- Total Cooling Capacity Function of Flow Fraction Curve Name
  DXCOOL-NECB2011-REF-COOLEIRFT,          !- Energy Input Ratio Function of Temperature Curve Name
  DXCOOL-NECB2011-REF-COOLEIRFFLOW,       !- Energy Input Ratio Function of Flow Fraction Curve Name
  DXCOOL-NECB2011-REF-COOLPLFFPLR,        !- Part Load Fraction Correlation Curve Name
  -25,                                    !- Minimum Outdoor Dry-Bulb Temperature for Compressor Operation {C}
  0,                                      !- Nominal Time for Condensate Removal to Begin {s}
  0,                                      !- Ratio of Initial Moisture Evaporation Rate and Steady State Latent Capacity {dimensionless}
  0,                                      !- Maximum Cycling Rate {cycles/hr}
  0,                                      !- Latent Capacity Time Constant {s}
  ,                                       !- Condenser Air Inlet Node Name
  AirCooled,                              !- Condenser Type
  0.9,                                    !- Evaporative Condenser Effectiveness {dimensionless}
  Autosize,                               !- Evaporative Condenser Air Flow Rate {m3/s}
  Autosize,                               !- Evaporative Condenser Pump Rated Power Consumption {W}
  1e-06,                                  !- Crankcase Heater Capacity {W}
  ,                                       !- Crankcase Heater Capacity Function of Temperature Curve Name
  10,                                     !- Maximum Outdoor Dry-Bulb Temperature for Crankcase Heater Operation {C}
  ,                                       !- Supply Water Storage Tank Name
  ,                                       !- Condensate Collection Water Storage Tank Name
  0,                                      !- Basin Heater Capacity {W/K}
  2;                                      !- Basin Heater Setpoint Temperature {C}

ZoneHVAC:Baseboard:Convective:Electric,
  ZoneHVACBaseboardConvectiveElectric 4,  !- Name
  Always On Discrete,                     !- Availability Schedule Name
  ,                                       !- Heating Design Capacity Method
  Autosize,                               !- Heating Design Capacity {W}
  ,                                       !- Heating Design Capacity Per Floor Area {W/m2}
  ,                                       !- Fraction of Autosized Heating Design Capacity
  1;                                      !- Efficiency

ZoneHVAC:EquipmentList,
  DU_BT=Space Function_ST=Dwelling units general_FL=Building Story 1_SCHG 8 Equipment List, !- Name
  SequentialLoad,                         !- Load Distribution Scheme
  ZoneHVAC:AirDistributionUnit,           !- Zone Equipment Object Type 1
  ADU Air Terminal Single Duct Constant Volume No Reheat 5, !- Zone Equipment Name 1
  1,                                      !- Zone Equipment Cooling Sequence 1
  1,                                      !- Zone Equipment Heating or No-Load Sequence 1
  ,                                       !- Zone Equipment Sequential Cooling Fraction Schedule Name 1
  ,                                       !- Zone Equipment Sequential Heating Fraction Schedule Name 1
  ZoneHVAC:PackagedTerminalAirConditioner, !- Zone Equipment Object Type 2
  ZoneHVACPackagedTerminalAirConditioner 4, !- Zone Equipment Name 2
  2,                                      !- Zone Equipment Cooling Sequence 2
  2,                                      !- Zone Equipment Heating or No-Load Sequence 2
  ,                                       !- Zone Equipment Sequential Cooling Fraction Schedule Name 2
  ,                                       !- Zone Equipment Sequential Heating Fraction Schedule Name 2
  ZoneHVAC:Baseboard:Convective:Electric, !- Zone Equipment Object Type 3
  ZoneHVACBaseboardConvectiveElectric 4,  !- Zone Equipment Name 3
  3,                                      !- Zone Equipment Cooling Sequence 3
  3,                                      !- Zone Equipment Heating or No-Load Sequence 3
  ,                                       !- Zone Equipment Sequential Cooling Fraction Schedule Name 3
  ;                                       !- Zone Equipment Sequential Heating Fraction Schedule Name 3

Sizing:Zone,
  DU_BT=Space Function_ST=Dwelling units general_FL=Building Story 1_SCHG 8, !- Zone or ZoneList Name
  TemperatureDifference,                  !- Zone Cooling Design Supply Air Temperature Input Method
  13,                                     !- Zone Cooling Design Supply Air Temperature {C}
  11,                                     !- Zone Cooling Design Supply Air Temperature Difference {deltaC}
  TemperatureDifference,                  !- Zone Heating Design Supply Air Temperature Input Method
  43,                                     !- Zone Heating Design Supply Air Temperature {C}
  21,                                     !- Zone Heating Design Supply Air Temperature Difference {deltaC}
  0.0085,                                 !- Zone Cooling Design Supply Air Humidity Ratio {kgWater/kgDryAir}
  0.008,                                  !- Zone Heating Design Supply Air Humidity Ratio {kgWater/kgDryAir}
  DU_BT=Space Function_ST=Dwelling units general_FL=Building Story 1_SCHG 8 DSOA Space List, !- Design Specification Outdoor Air Object Name
  1.3,                                    !- Zone Heating Sizing Factor
  1.1,                                    !- Zone Cooling Sizing Factor
  DesignDay,                              !- Cooling Design Air Flow Method
  0,                                      !- Cooling Design Air Flow Rate {m3/s}
  0.000762,                               !- Cooling Minimum Air Flow per Zone Floor Area {m3/s-m2}
  0,                                      !- Cooling Minimum Air Flow {m3/s}
  0,                                      !- Cooling Minimum Air Flow Fraction
  DesignDay,                              !- Heating Design Air Flow Method
  0,                                      !- Heating Design Air Flow Rate {m3/s}
  0.002032,                               !- Heating Maximum Air Flow per Zone Floor Area {m3/s-m2}
  0.1415762,                              !- Heating Maximum Air Flow {m3/s}
  0.3,                                    !- Heating Maximum Air Flow Fraction
  ,                                       !- Design Specification Zone Air Distribution Object Name
  No,                                     !- Account for Dedicated Outdoor Air System
  ,                                       !- Dedicated Outdoor Air System Control Strategy
  ,                                       !- Dedicated Outdoor Air Low Setpoint Temperature for Design {C}
  ,                                       !- Dedicated Outdoor Air High Setpoint Temperature for Design {C}
  Sensible Load Only No Latent Load,      !- Zone Load Sizing Method
  HumidityRatioDifference,                !- Zone Latent Cooling Design Supply Air Humidity Ratio Input Method
  ,                                       !- Zone Dehumidification Design Supply Air Humidity Ratio {kgWater/kgDryAir}
  0.005,                                  !- Zone Cooling Design Supply Air Humidity Ratio Difference {kgWater/kgDryAir}
  HumidityRatioDifference,                !- Zone Latent Heating Design Supply Air Humidity Ratio Input Method
  ,                                       !- Zone Humidification Design Supply Air Humidity Ratio {kgWater/kgDryAir}
  0.005,                                  !- Zone Humidification Design Supply Air Humidity Ratio Difference {kgWater/kgDryAir}
  ,                                       !- Zone Humidistat Dehumidification Set Point Schedule Name
  ,                                       !- Zone Humidistat Humidification Set Point Schedule Name
  Coincident;                             !- Type of Space Sum to Use

DesignSpecification:OutdoorAir:SpaceList,
  DU_BT=Space Function_ST=Dwelling units general_FL=Building Story 1_SCHG 8 DSOA Space List, !- Name
  G NW Apartment,                         !- Space Name 1
  Space Function Dwelling units general Ventilation; !- Space Design Specification Outdoor Air Object Name 1

Zone,
  DU_BT=Space Function_ST=Dwelling units general_FL=Building Story 1_SCHG 9, !- Name
  0,                                      !- Direction of Relative North {deg}
  0,                                      !- X Origin {m}
  0,                                      !- Y Origin {m}
  0,                                      !- Z Origin {m}
  ,                                       !- Type
  1,                                      !- Multiplier
  ,                                       !- Ceiling Height {m}
  ,                                       !- Volume {m3}
  ,                                       !- Floor Area {m2}
  ,                                       !- Zone Inside Convection Algorithm
  ,                                       !- Zone Outside Convection Algorithm
  Yes;                                    !- Part of Total Floor Area

Space,
  G SW Apartment,                         !- Name
  DU_BT=Space Function_ST=Dwelling units general_FL=Building Story 1_SCHG 9, !- Zone Name
  ,                                       !- Ceiling Height {m}
  268.97063879463,                        !- Volume {m3}
  ,                                       !- Floor Area {m2}
  Space Function Dwelling units general;  !- Space Type

BuildingSurface:Detailed,
  g Ceilin SWA,                           !- Name
  Ceiling,                                !- Surface Type
  BTAP-Int-Wall,                          !- Construction Name
  DU_BT=Space Function_ST=Dwelling units general_FL=Building Story 1_SCHG 9, !- Zone Name
  G SW Apartment,                         !- Space Name
  Adiabatic,                              !- Outside Boundary Condition
  ,                                       !- Outside Boundary Condition Object
  NoSun,                                  !- Sun Exposure
  NoWind,                                 !- Wind Exposure
  ,                                       !- View Factor to Ground
  ,                                       !- Number of Vertices
  11.581835, 0, 3.047851,                 !- X,Y,Z Vertex 1 {m}
  11.581835, 7.619628, 3.047851,          !- X,Y,Z Vertex 2 {m}
  0, 7.619628, 3.047851,                  !- X,Y,Z Vertex 3 {m}
  0, 0, 3.047851;                         !- X,Y,Z Vertex 4 {m}

BuildingSurface:Detailed,
  g EIWALL SWA,                           !- Name
  Wall,                                   !- Surface Type
  BTAP-Int-Wall,                          !- Construction Name
  DU_BT=Space Function_ST=Dwelling units general_FL=Building Story 1_SCHG 9, !- Zone Name
  G SW Apartment,                         !- Space Name
  Surface,                                !- Outside Boundary Condition
  g EIWALL SWA Reversed,                  !- Outside Boundary Condition Object
  NoSun,                                  !- Sun Exposure
  NoWind,                                 !- Wind Exposure
  ,                                       !- View Factor to Ground
  ,                                       !- Number of Vertices
  11.581835, 0, 3.047851,                 !- X,Y,Z Vertex 1 {m}
  11.581835, 0, 0,                        !- X,Y,Z Vertex 2 {m}
  11.581835, 7.619628, 0,                 !- X,Y,Z Vertex 3 {m}
  11.581835, 7.619628, 3.047851;          !- X,Y,Z Vertex 4 {m}

BuildingSurface:Detailed,
  g GFloor SWA,                           !- Name
  Floor,                                  !- Surface Type
  BTAP-Grnd-Floor-Mass:U-0.757_std,       !- Construction Name
  DU_BT=Space Function_ST=Dwelling units general_FL=Building Story 1_SCHG 9, !- Zone Name
  G SW Apartment,                         !- Space Name
  Foundation,                             !- Outside Boundary Condition
  Bldg Kiva Foundation,                   !- Outside Boundary Condition Object
  NoSun,                                  !- Sun Exposure
  NoWind,                                 !- Wind Exposure
  ,                                       !- View Factor to Ground
  ,                                       !- Number of Vertices
  11.581835, 7.619628, 0,                 !- X,Y,Z Vertex 1 {m}
  11.581835, 0, 0,                        !- X,Y,Z Vertex 2 {m}
  0, 0, 0,                                !- X,Y,Z Vertex 3 {m}
  0, 7.619628, 0;                         !- X,Y,Z Vertex 4 {m}

SurfaceProperty:ExposedFoundationPerimeter,
  g GFloor SWA,                           !- Surface Name
  TotalExposedPerimeter,                  !- Exposed Perimeter Calculation Method
  19.201463,                              !- Total Exposed Perimeter {m}
  ;                                       !- Exposed Perimeter Fraction {dimensionless}

BuildingSurface:Detailed,
  g NIWall SWA,                           !- Name
  Wall,                                   !- Surface Type
  BTAP-Int-Wall,                          !- Construction Name
  DU_BT=Space Function_ST=Dwelling units general_FL=Building Story 1_SCHG 9, !- Zone Name
  G SW Apartment,                         !- Space Name
  Surface,                                !- Outside Boundary Condition
  g NIWall SWA Reversed,                  !- Outside Boundary Condition Object
  NoSun,                                  !- Sun Exposure
  NoWind,                                 !- Wind Exposure
  ,                                       !- View Factor to Ground
  ,                                       !- Number of Vertices
  11.581835, 7.619628, 3.047851,          !- X,Y,Z Vertex 1 {m}
  11.581835, 7.619628, 0,                 !- X,Y,Z Vertex 2 {m}
  0, 7.619628, 0,                         !- X,Y,Z Vertex 3 {m}
  0, 7.619628, 3.047851;                  !- X,Y,Z Vertex 4 {m}

BuildingSurface:Detailed,
  g SWall SWA,                            !- Name
  Wall,                                   !- Surface Type
  BTAP-Ext-Wall-Mass:U-0.29,              !- Construction Name
  DU_BT=Space Function_ST=Dwelling units general_FL=Building Story 1_SCHG 9, !- Zone Name
  G SW Apartment,                         !- Space Name
  Outdoors,                               !- Outside Boundary Condition
  ,                                       !- Outside Boundary Condition Object
  SunExposed,                             !- Sun Exposure
  WindExposed,                            !- Wind Exposure
  ,                                       !- View Factor to Ground
  ,                                       !- Number of Vertices
  0, 0, 3.047851,                         !- X,Y,Z Vertex 1 {m}
  0, 0, 0,                                !- X,Y,Z Vertex 2 {m}
  11.581835, 0, 0,                        !- X,Y,Z Vertex 3 {m}
  11.581835, 0, 3.047851;                 !- X,Y,Z Vertex 4 {m}

FenestrationSurface:Detailed,
  g SWall SWA_FixedWindow,                !- Name
  Window,                                 !- Surface Type
  BTAP-Ext-FixedWindow:U=0.280 SHGC=0.600, !- Construction Name
  g SWall SWA,                            !- Building Surface Name
  ,                                       !- Outside Boundary Condition Object
  ,                                       !- View Factor to Ground
  ,                                       !- Frame and Divider Name
  ,                                       !- Multiplier
  ,                                       !- Number of Vertices
  0.0254, 0, 1.78140567865181,            !- X,Y,Z Vertex 1 {m}
  0.0254, 0, 0.762,                       !- X,Y,Z Vertex 2 {m}
  11.556435, 0, 0.762,                    !- X,Y,Z Vertex 3 {m}
  11.556435, 0, 1.78140567865181;         !- X,Y,Z Vertex 4 {m}

BuildingSurface:Detailed,
  g WWall SWA,                            !- Name
  Wall,                                   !- Surface Type
  BTAP-Ext-Wall-Mass:U-0.29,              !- Construction Name
  DU_BT=Space Function_ST=Dwelling units general_FL=Building Story 1_SCHG 9, !- Zone Name
  G SW Apartment,                         !- Space Name
  Outdoors,                               !- Outside Boundary Condition
  ,                                       !- Outside Boundary Condition Object
  SunExposed,                             !- Sun Exposure
  WindExposed,                            !- Wind Exposure
  ,                                       !- View Factor to Ground
  ,                                       !- Number of Vertices
  0, 7.619628, 3.047851,                  !- X,Y,Z Vertex 1 {m}
  0, 7.619628, 0,                         !- X,Y,Z Vertex 2 {m}
  0, 0, 0,                                !- X,Y,Z Vertex 3 {m}
  0, 0, 3.047851;                         !- X,Y,Z Vertex 4 {m}

FenestrationSurface:Detailed,
  g WWall SWA_FixedWindow,                !- Name
  Window,                                 !- Surface Type
  BTAP-Ext-FixedWindow:U=0.280 SHGC=0.600, !- Construction Name
  g WWall SWA,                            !- Building Surface Name
  ,                                       !- Outside Boundary Condition Object
  ,                                       !- View Factor to Ground
  ,                                       !- Frame and Divider Name
  ,                                       !- Multiplier
  ,                                       !- Number of Vertices
  0, 7.594228, 1.78374635793937,          !- X,Y,Z Vertex 1 {m}
  0, 7.594228, 0.762,                     !- X,Y,Z Vertex 2 {m}
  0, 0.0253999999999994, 0.762,           !- X,Y,Z Vertex 3 {m}
  0, 0.0253999999999994, 1.78374635793937; !- X,Y,Z Vertex 4 {m}

ZoneInfiltration:DesignFlowRate,
  G SW Apartment Infiltration,            !- Name
  G SW Apartment,                         !- Zone or ZoneList or Space or SpaceList Name
  Always On Discrete,                     !- Schedule Name
  Flow/ExteriorArea,                      !- Design Flow Rate Calculation Method
  ,                                       !- Design Flow Rate {m3/s}
  ,                                       !- Flow Rate per Floor Area {m3/s-m2}
  0.00447586595596712,                    !- Flow Rate per Exterior Surface Area {m3/s-m2}
  ,                                       !- Air Changes per Hour {1/hr}
  0,                                      !- Constant Term Coefficient
  0,                                      !- Temperature Term Coefficient
  0.224,                                  !- Velocity Term Coefficient
  0;                                      !- Velocity Squared Term Coefficient

ZoneControl:Thermostat,
  DU_BT=Space Function_ST=Dwelling units general_FL=Building Story 1_SCHG 9 Thermostat, !- Name
  DU_BT=Space Function_ST=Dwelling units general_FL=Building Story 1_SCHG 9, !- Zone or ZoneList Name
  DU_BT=Space Function_ST=Dwelling units general_FL=Building Story 1_SCHG 9 Thermostat Schedule, !- Control Type Schedule Name
  ThermostatSetpoint:DualSetpoint,        !- Control 1 Object Type
  Space Function Dwelling units general Thermostat 46, !- Control 1 Name
  ,                                       !- Control 2 Object Type
  ,                                       !- Control 2 Name
  ,                                       !- Control 3 Object Type
  ,                                       !- Control 3 Name
  ,                                       !- Control 4 Object Type
  ,                                       !- Control 4 Name
  0;                                      !- Temperature Difference Between Cutout And Setpoint {deltaC}

Schedule:Compact,
  DU_BT=Space Function_ST=Dwelling units general_FL=Building Story 1_SCHG 9 Thermostat Schedule, !- Name
  DU_BT=Space Function_ST=Dwelling units general_FL=Building Story 1_SCHG 9 Thermostat Schedule Type Limits, !- Schedule Type Limits Name
  Through: 12/31,                         !- Field 1
  For: AllDays,                           !- Field 2
  Until: 24:00,                           !- Field 3
  4;                                      !- Field 4

ScheduleTypeLimits,
  DU_BT=Space Function_ST=Dwelling units general_FL=Building Story 1_SCHG 9 Thermostat Schedule Type Limits, !- Name
  0,                                      !- Lower Limit Value {BasedOnField A3}
  4,                                      !- Upper Limit Value {BasedOnField A3}
  DISCRETE;                               !- Numeric Type

ThermostatSetpoint:DualSetpoint,
  Space Function Dwelling units general Thermostat 46, !- Name
  NECB-G-Thermostat Setpoint-Heating,     !- Heating Setpoint Temperature Schedule Name
  NECB-G-Thermostat Setpoint-Cooling;     !- Cooling Setpoint Temperature Schedule Name

ZoneHVAC:EquipmentConnections,
  DU_BT=Space Function_ST=Dwelling units general_FL=Building Story 1_SCHG 9, !- Zone Name
  DU_BT=Space Function_ST=Dwelling units general_FL=Building Story 1_SCHG 9 Equipment List, !- Zone Conditioning Equipment List Name
  DU_BT=Space Function_ST=Dwelling units general_FL=Building Story 1_SCHG 9 Inlet Node List, !- Zone Air Inlet Node or NodeList Name
  DU_BT=Space Function_ST=Dwelling units general_FL=Building Story 1_SCHG 9 Exhaust Node List, !- Zone Air Exhaust Node or NodeList Name
  DU_BT=Space Function_ST=Dwelling units general_FL=Building Story 1_SCHG 9 Zone Air Node, !- Zone Air Node Name
  DU_BT=Space Function_ST=Dwelling units general_FL=Building Story 1_SCHG 9 Return Node List; !- Zone Return Air Node or NodeList Name

NodeList,
  DU_BT=Space Function_ST=Dwelling units general_FL=Building Story 1_SCHG 9 Inlet Node List, !- Name
  Air Terminal Single Duct Constant Volume No Reheat 6 Outlet Air Node, !- Node Name 1
  ZoneHVACPackagedTerminalAirConditioner 5 Outlet Air Node; !- Node Name 2

NodeList,
  DU_BT=Space Function_ST=Dwelling units general_FL=Building Story 1_SCHG 9 Exhaust Node List, !- Name
  ZoneHVACPackagedTerminalAirConditioner 5 Inlet Air Node; !- Node Name 1

NodeList,
  DU_BT=Space Function_ST=Dwelling units general_FL=Building Story 1_SCHG 9 Return Node List, !- Name
  DU_BT=Space Function_ST=Dwelling units general_FL=Building Story 1_SCHG 9 Return Air Node; !- Node Name 1

AirTerminal:SingleDuct:ConstantVolume:NoReheat,
  Air Terminal Single Duct Constant Volume No Reheat 6, !- Name
  Always On Discrete,                     !- Availability Schedule Name
  Air Terminal Single Duct Constant Volume No Reheat 6 Inlet Air Node, !- Air Inlet Node Name
  Air Terminal Single Duct Constant Volume No Reheat 6 Outlet Air Node, !- Air Outlet Node Name
  AutoSize;                               !- Maximum Air Flow Rate {m3/s}

ZoneHVAC:AirDistributionUnit,
  ADU Air Terminal Single Duct Constant Volume No Reheat 6, !- Name
  Air Terminal Single Duct Constant Volume No Reheat 6 Outlet Air Node, !- Air Distribution Unit Outlet Node Name
  AirTerminal:SingleDuct:ConstantVolume:NoReheat, !- Air Terminal Object Type
  Air Terminal Single Duct Constant Volume No Reheat 6; !- Air Terminal Name

ZoneHVAC:PackagedTerminalAirConditioner,
  ZoneHVACPackagedTerminalAirConditioner 5, !- Name
  Always On Discrete,                     !- Availability Schedule Name
  ZoneHVACPackagedTerminalAirConditioner 5 Inlet Air Node, !- Air Inlet Node Name
  ZoneHVACPackagedTerminalAirConditioner 5 Outlet Air Node, !- Air Outlet Node Name
  OutdoorAir:Mixer,                       !- Outdoor Air Mixer Object Type
  ZoneHVACPackagedTerminalAirConditioner 5 OA Mixer, !- Outdoor Air Mixer Name
  Autosize,                               !- Cooling Supply Air Flow Rate {m3/s}
  Autosize,                               !- Heating Supply Air Flow Rate {m3/s}
  Autosize,                               !- No Load Supply Air Flow Rate {m3/s}
  Yes,                                    !- No Load Supply Air Flow Rate Control Set To Low Speed
  1e-06,                                  !- Cooling Outdoor Air Flow Rate {m3/s}
  1e-06,                                  !- Heating Outdoor Air Flow Rate {m3/s}
  1e-06,                                  !- No Load Outdoor Air Flow Rate {m3/s}
  Fan:OnOff,                              !- Supply Air Fan Object Type
  FanOnOff 5,                             !- Supply Air Fan Name
  Coil:Heating:Electric,                  !- Heating Coil Object Type
  CoilHeatingElectric 6,                  !- Heating Coil Name
  Coil:Cooling:DX:SingleSpeed,            !- Cooling Coil Object Type
  CoilCoolingDXSingleSpeed_PTAC 5 21kBtu/hr 9.5EER, !- Cooling Coil Name
  DrawThrough,                            !- Fan Placement
  Always Off Discrete;                    !- Supply Air Fan Operating Mode Schedule Name

OutdoorAir:Mixer,
  ZoneHVACPackagedTerminalAirConditioner 5 OA Mixer, !- Name
  ZoneHVACPackagedTerminalAirConditioner 5 Mixed Air Node, !- Mixed Air Node Name
  ZoneHVACPackagedTerminalAirConditioner 5 OA Node, !- Outdoor Air Stream Node Name
  ZoneHVACPackagedTerminalAirConditioner 5 Relief Air Node, !- Relief Air Stream Node Name
  ZoneHVACPackagedTerminalAirConditioner 5 Inlet Air Node; !- Return Air Stream Node Name

OutdoorAir:NodeList,
  ZoneHVACPackagedTerminalAirConditioner 5 OA Node; !- Node or NodeList Name 1

Fan:OnOff,
  FanOnOff 5,                             !- Name
  Always On Discrete,                     !- Availability Schedule Name
  0.39975,                                !- Fan Total Efficiency
  331.2882503,                            !- Pressure Rise {Pa}
  Autosize,                               !- Maximum Flow Rate {m3/s}
  0.615,                                  !- Motor Efficiency
  1,                                      !- Motor In Airstream Fraction
  ZoneHVACPackagedTerminalAirConditioner 5 Heating Coil Outlet Node, !- Air Inlet Node Name
  ZoneHVACPackagedTerminalAirConditioner 5 Outlet Air Node, !- Air Outlet Node Name
  Fan On Off Power Curve 5,               !- Fan Power Ratio Function of Speed Ratio Curve Name
  Fan On Off Efficiency Curve 5,          !- Fan Efficiency Ratio Function of Speed Ratio Curve Name
  General;                                !- End-Use Subcategory

Curve:Exponent,
  Fan On Off Power Curve 5,               !- Name
  1,                                      !- Coefficient1 Constant
  0,                                      !- Coefficient2 Constant
  0,                                      !- Coefficient3 Constant
  0,                                      !- Minimum Value of x {BasedOnField A2}
  1;                                      !- Maximum Value of x {BasedOnField A2}

Curve:Cubic,
  Fan On Off Efficiency Curve 5,          !- Name
  1,                                      !- Coefficient1 Constant
  0,                                      !- Coefficient2 x
  0,                                      !- Coefficient3 x**2
  0,                                      !- Coefficient4 x**3
  0,                                      !- Minimum Value of x {BasedOnField A2}
  1;                                      !- Maximum Value of x {BasedOnField A2}

Coil:Heating:Electric,
  CoilHeatingElectric 6,                  !- Name
  Always Off Discrete,                    !- Availability Schedule Name
  1,                                      !- Efficiency
  Autosize,                               !- Nominal Capacity {W}
  ZoneHVACPackagedTerminalAirConditioner 5 Cooling Coil Outlet Node, !- Air Inlet Node Name
  ZoneHVACPackagedTerminalAirConditioner 5 Heating Coil Outlet Node; !- Air Outlet Node Name

Coil:Cooling:DX:SingleSpeed,
  CoilCoolingDXSingleSpeed_PTAC 5 21kBtu/hr 9.5EER, !- Name
  Always On Discrete,                     !- Availability Schedule Name
  Autosize,                               !- Gross Rated Total Cooling Capacity {W}
  Autosize,                               !- Gross Rated Sensible Heat Ratio
  3.30019905299558,                       !- Gross Rated Cooling COP {W/W}
  Autosize,                               !- Rated Air Flow Rate {m3/s}
  773.3,                                  !- Rated Evaporator Fan Power Per Volume Flow Rate 2017 {W/(m3/s)}
  934.4,                                  !- Rated Evaporator Fan Power Per Volume Flow Rate 2023 {W/(m3/s)}
  ZoneHVACPackagedTerminalAirConditioner 5 Mixed Air Node, !- Air Inlet Node Name
  ZoneHVACPackagedTerminalAirConditioner 5 Cooling Coil Outlet Node, !- Air Outlet Node Name
  DXCOOL-NECB2011-REF-CAPFT,              !- Total Cooling Capacity Function of Temperature Curve Name
  DXCOOL-NECB2011-REF-CAPFFLOW,           !- Total Cooling Capacity Function of Flow Fraction Curve Name
  DXCOOL-NECB2011-REF-COOLEIRFT,          !- Energy Input Ratio Function of Temperature Curve Name
  DXCOOL-NECB2011-REF-COOLEIRFFLOW,       !- Energy Input Ratio Function of Flow Fraction Curve Name
  DXCOOL-NECB2011-REF-COOLPLFFPLR,        !- Part Load Fraction Correlation Curve Name
  -25,                                    !- Minimum Outdoor Dry-Bulb Temperature for Compressor Operation {C}
  0,                                      !- Nominal Time for Condensate Removal to Begin {s}
  0,                                      !- Ratio of Initial Moisture Evaporation Rate and Steady State Latent Capacity {dimensionless}
  0,                                      !- Maximum Cycling Rate {cycles/hr}
  0,                                      !- Latent Capacity Time Constant {s}
  ,                                       !- Condenser Air Inlet Node Name
  AirCooled,                              !- Condenser Type
  0.9,                                    !- Evaporative Condenser Effectiveness {dimensionless}
  Autosize,                               !- Evaporative Condenser Air Flow Rate {m3/s}
  Autosize,                               !- Evaporative Condenser Pump Rated Power Consumption {W}
  1e-06,                                  !- Crankcase Heater Capacity {W}
  ,                                       !- Crankcase Heater Capacity Function of Temperature Curve Name
  10,                                     !- Maximum Outdoor Dry-Bulb Temperature for Crankcase Heater Operation {C}
  ,                                       !- Supply Water Storage Tank Name
  ,                                       !- Condensate Collection Water Storage Tank Name
  0,                                      !- Basin Heater Capacity {W/K}
  2;                                      !- Basin Heater Setpoint Temperature {C}

ZoneHVAC:Baseboard:Convective:Electric,
  ZoneHVACBaseboardConvectiveElectric 5,  !- Name
  Always On Discrete,                     !- Availability Schedule Name
  ,                                       !- Heating Design Capacity Method
  Autosize,                               !- Heating Design Capacity {W}
  ,                                       !- Heating Design Capacity Per Floor Area {W/m2}
  ,                                       !- Fraction of Autosized Heating Design Capacity
  1;                                      !- Efficiency

ZoneHVAC:EquipmentList,
  DU_BT=Space Function_ST=Dwelling units general_FL=Building Story 1_SCHG 9 Equipment List, !- Name
  SequentialLoad,                         !- Load Distribution Scheme
  ZoneHVAC:AirDistributionUnit,           !- Zone Equipment Object Type 1
  ADU Air Terminal Single Duct Constant Volume No Reheat 6, !- Zone Equipment Name 1
  1,                                      !- Zone Equipment Cooling Sequence 1
  1,                                      !- Zone Equipment Heating or No-Load Sequence 1
  ,                                       !- Zone Equipment Sequential Cooling Fraction Schedule Name 1
  ,                                       !- Zone Equipment Sequential Heating Fraction Schedule Name 1
  ZoneHVAC:PackagedTerminalAirConditioner, !- Zone Equipment Object Type 2
  ZoneHVACPackagedTerminalAirConditioner 5, !- Zone Equipment Name 2
  2,                                      !- Zone Equipment Cooling Sequence 2
  2,                                      !- Zone Equipment Heating or No-Load Sequence 2
  ,                                       !- Zone Equipment Sequential Cooling Fraction Schedule Name 2
  ,                                       !- Zone Equipment Sequential Heating Fraction Schedule Name 2
  ZoneHVAC:Baseboard:Convective:Electric, !- Zone Equipment Object Type 3
  ZoneHVACBaseboardConvectiveElectric 5,  !- Zone Equipment Name 3
  3,                                      !- Zone Equipment Cooling Sequence 3
  3,                                      !- Zone Equipment Heating or No-Load Sequence 3
  ,                                       !- Zone Equipment Sequential Cooling Fraction Schedule Name 3
  ;                                       !- Zone Equipment Sequential Heating Fraction Schedule Name 3

Sizing:Zone,
  DU_BT=Space Function_ST=Dwelling units general_FL=Building Story 1_SCHG 9, !- Zone or ZoneList Name
  TemperatureDifference,                  !- Zone Cooling Design Supply Air Temperature Input Method
  13,                                     !- Zone Cooling Design Supply Air Temperature {C}
  11,                                     !- Zone Cooling Design Supply Air Temperature Difference {deltaC}
  TemperatureDifference,                  !- Zone Heating Design Supply Air Temperature Input Method
  43,                                     !- Zone Heating Design Supply Air Temperature {C}
  21,                                     !- Zone Heating Design Supply Air Temperature Difference {deltaC}
  0.0085,                                 !- Zone Cooling Design Supply Air Humidity Ratio {kgWater/kgDryAir}
  0.008,                                  !- Zone Heating Design Supply Air Humidity Ratio {kgWater/kgDryAir}
  DU_BT=Space Function_ST=Dwelling units general_FL=Building Story 1_SCHG 9 DSOA Space List, !- Design Specification Outdoor Air Object Name
  1.3,                                    !- Zone Heating Sizing Factor
  1.1,                                    !- Zone Cooling Sizing Factor
  DesignDay,                              !- Cooling Design Air Flow Method
  0,                                      !- Cooling Design Air Flow Rate {m3/s}
  0.000762,                               !- Cooling Minimum Air Flow per Zone Floor Area {m3/s-m2}
  0,                                      !- Cooling Minimum Air Flow {m3/s}
  0,                                      !- Cooling Minimum Air Flow Fraction
  DesignDay,                              !- Heating Design Air Flow Method
  0,                                      !- Heating Design Air Flow Rate {m3/s}
  0.002032,                               !- Heating Maximum Air Flow per Zone Floor Area {m3/s-m2}
  0.1415762,                              !- Heating Maximum Air Flow {m3/s}
  0.3,                                    !- Heating Maximum Air Flow Fraction
  ,                                       !- Design Specification Zone Air Distribution Object Name
  No,                                     !- Account for Dedicated Outdoor Air System
  ,                                       !- Dedicated Outdoor Air System Control Strategy
  ,                                       !- Dedicated Outdoor Air Low Setpoint Temperature for Design {C}
  ,                                       !- Dedicated Outdoor Air High Setpoint Temperature for Design {C}
  Sensible Load Only No Latent Load,      !- Zone Load Sizing Method
  HumidityRatioDifference,                !- Zone Latent Cooling Design Supply Air Humidity Ratio Input Method
  ,                                       !- Zone Dehumidification Design Supply Air Humidity Ratio {kgWater/kgDryAir}
  0.005,                                  !- Zone Cooling Design Supply Air Humidity Ratio Difference {kgWater/kgDryAir}
  HumidityRatioDifference,                !- Zone Latent Heating Design Supply Air Humidity Ratio Input Method
  ,                                       !- Zone Humidification Design Supply Air Humidity Ratio {kgWater/kgDryAir}
  0.005,                                  !- Zone Humidification Design Supply Air Humidity Ratio Difference {kgWater/kgDryAir}
  ,                                       !- Zone Humidistat Dehumidification Set Point Schedule Name
  ,                                       !- Zone Humidistat Humidification Set Point Schedule Name
  Coincident;                             !- Type of Space Sum to Use

DesignSpecification:OutdoorAir:SpaceList,
  DU_BT=Space Function_ST=Dwelling units general_FL=Building Story 1_SCHG 9 DSOA Space List, !- Name
  G SW Apartment,                         !- Space Name 1
  Space Function Dwelling units general Ventilation; !- Space Design Specification Outdoor Air Object Name 1

Zone,
  DU_BT=Space Function_ST=Dwelling units general_FL=Building Story 2_SCHG, !- Name
  0,                                      !- Direction of Relative North {deg}
  11.5818351633044,                       !- X Origin {m}
  9.29594664423115,                       !- Y Origin {m}
  3.04785135876431,                       !- Z Origin {m}
  ,                                       !- Type
  1,                                      !- Multiplier
  ,                                       !- Ceiling Height {m}
  ,                                       !- Volume {m3}
  ,                                       !- Floor Area {m2}
  ,                                       !- Zone Inside Convection Algorithm
  ,                                       !- Zone Outside Convection Algorithm
  Yes;                                    !- Part of Total Floor Area

Space,
  M N1 Apartment,                         !- Name
  DU_BT=Space Function_ST=Dwelling units general_FL=Building Story 2_SCHG, !- Zone Name
  ,                                       !- Ceiling Height {m}
  268.97063879463,                        !- Volume {m3}
  ,                                       !- Floor Area {m2}
  Space Function Dwelling units general;  !- Space Type

BuildingSurface:Detailed,
  m Ceilin N1A,                           !- Name
  Ceiling,                                !- Surface Type
  BTAP-Int-Wall,                          !- Construction Name
  DU_BT=Space Function_ST=Dwelling units general_FL=Building Story 2_SCHG, !- Zone Name
  M N1 Apartment,                         !- Space Name
  Adiabatic,                              !- Outside Boundary Condition
  ,                                       !- Outside Boundary Condition Object
  NoSun,                                  !- Sun Exposure
  NoWind,                                 !- Wind Exposure
  ,                                       !- View Factor to Ground
  ,                                       !- Number of Vertices
  11.581835, 0, 3.047851,                 !- X,Y,Z Vertex 1 {m}
  11.581835, 7.619628, 3.047851,          !- X,Y,Z Vertex 2 {m}
  0, 7.619628, 3.047851,                  !- X,Y,Z Vertex 3 {m}
  0, 0, 3.047851;                         !- X,Y,Z Vertex 4 {m}

BuildingSurface:Detailed,
  m EIWALL N1A,                           !- Name
  Wall,                                   !- Surface Type
  BTAP-Int-Wall,                          !- Construction Name
  DU_BT=Space Function_ST=Dwelling units general_FL=Building Story 2_SCHG, !- Zone Name
  M N1 Apartment,                         !- Space Name
  Surface,                                !- Outside Boundary Condition
  m EIWALL N2A Reversed,                  !- Outside Boundary Condition Object
  NoSun,                                  !- Sun Exposure
  NoWind,                                 !- Wind Exposure
  ,                                       !- View Factor to Ground
  ,                                       !- Number of Vertices
  11.581835, 0, 3.047851,                 !- X,Y,Z Vertex 1 {m}
  11.581835, 0, 0,                        !- X,Y,Z Vertex 2 {m}
  11.581835, 7.619628, 0,                 !- X,Y,Z Vertex 3 {m}
  11.581835, 7.619628, 3.047851;          !- X,Y,Z Vertex 4 {m}

BuildingSurface:Detailed,
  m EIWALL NWA Reversed,                  !- Name
  Wall,                                   !- Surface Type
  BTAP-Int-Wall,                          !- Construction Name
  DU_BT=Space Function_ST=Dwelling units general_FL=Building Story 2_SCHG, !- Zone Name
  M N1 Apartment,                         !- Space Name
  Surface,                                !- Outside Boundary Condition
  m EIWALL NWA,                           !- Outside Boundary Condition Object
  NoSun,                                  !- Sun Exposure
  NoWind,                                 !- Wind Exposure
  ,                                       !- View Factor to Ground
  ,                                       !- Number of Vertices
  0, 7.619628, 3.047851,                  !- X,Y,Z Vertex 1 {m}
  0, 7.619628, 0,                         !- X,Y,Z Vertex 2 {m}
  0, 0, 0,                                !- X,Y,Z Vertex 3 {m}
  0, 0, 3.047851;                         !- X,Y,Z Vertex 4 {m}

BuildingSurface:Detailed,
  m GFloor N1A,                           !- Name
  Floor,                                  !- Surface Type
  BTAP-Int-Wall,                          !- Construction Name
  DU_BT=Space Function_ST=Dwelling units general_FL=Building Story 2_SCHG, !- Zone Name
  M N1 Apartment,                         !- Space Name
  Adiabatic,                              !- Outside Boundary Condition
  ,                                       !- Outside Boundary Condition Object
  NoSun,                                  !- Sun Exposure
  NoWind,                                 !- Wind Exposure
  ,                                       !- View Factor to Ground
  ,                                       !- Number of Vertices
  11.581835, 7.619628, 0,                 !- X,Y,Z Vertex 1 {m}
  11.581835, 0, 0,                        !- X,Y,Z Vertex 2 {m}
  0, 0, 0,                                !- X,Y,Z Vertex 3 {m}
  0, 7.619628, 0;                         !- X,Y,Z Vertex 4 {m}

BuildingSurface:Detailed,
  m NWall N1A,                            !- Name
  Wall,                                   !- Surface Type
  BTAP-Ext-Wall-Mass:U-0.29,              !- Construction Name
  DU_BT=Space Function_ST=Dwelling units general_FL=Building Story 2_SCHG, !- Zone Name
  M N1 Apartment,                         !- Space Name
  Outdoors,                               !- Outside Boundary Condition
  ,                                       !- Outside Boundary Condition Object
  SunExposed,                             !- Sun Exposure
  WindExposed,                            !- Wind Exposure
  ,                                       !- View Factor to Ground
  ,                                       !- Number of Vertices
  11.581835, 7.619628, 3.047851,          !- X,Y,Z Vertex 1 {m}
  11.581835, 7.619628, 0,                 !- X,Y,Z Vertex 2 {m}
  0, 7.619628, 0,                         !- X,Y,Z Vertex 3 {m}
  0, 7.619628, 3.047851;                  !- X,Y,Z Vertex 4 {m}

FenestrationSurface:Detailed,
  m NWall N1A_FixedWindow,                !- Name
  Window,                                 !- Surface Type
  BTAP-Ext-FixedWindow:U=0.280 SHGC=0.600, !- Construction Name
  m NWall N1A,                            !- Building Surface Name
  ,                                       !- Outside Boundary Condition Object
  ,                                       !- View Factor to Ground
  ,                                       !- Frame and Divider Name
  ,                                       !- Multiplier
  ,                                       !- Number of Vertices
  11.556435, 7.619628, 1.78140567865181,  !- X,Y,Z Vertex 1 {m}
  11.556435, 7.619628, 0.762,             !- X,Y,Z Vertex 2 {m}
  0.0254000000000012, 7.619628, 0.762,    !- X,Y,Z Vertex 3 {m}
  0.0254000000000012, 7.619628, 1.78140567865181; !- X,Y,Z Vertex 4 {m}

BuildingSurface:Detailed,
  m SIWall N1A,                           !- Name
  Wall,                                   !- Surface Type
  BTAP-Int-Wall,                          !- Construction Name
  DU_BT=Space Function_ST=Dwelling units general_FL=Building Story 2_SCHG, !- Zone Name
  M N1 Apartment,                         !- Space Name
  Surface,                                !- Outside Boundary Condition
  m SIWall N1A Reversed,                  !- Outside Boundary Condition Object
  NoSun,                                  !- Sun Exposure
  NoWind,                                 !- Wind Exposure
  ,                                       !- View Factor to Ground
  ,                                       !- Number of Vertices
  0, 0, 3.047851,                         !- X,Y,Z Vertex 1 {m}
  0, 0, 0,                                !- X,Y,Z Vertex 2 {m}
  11.581835, 0, 0,                        !- X,Y,Z Vertex 3 {m}
  11.581835, 0, 3.047851;                 !- X,Y,Z Vertex 4 {m}

ZoneInfiltration:DesignFlowRate,
  M N1 Apartment Infiltration,            !- Name
  M N1 Apartment,                         !- Zone or ZoneList or Space or SpaceList Name
  Always On Discrete,                     !- Schedule Name
  Flow/ExteriorArea,                      !- Design Flow Rate Calculation Method
  ,                                       !- Design Flow Rate {m3/s}
  ,                                       !- Flow Rate per Floor Area {m3/s-m2}
  0.00447586595596712,                    !- Flow Rate per Exterior Surface Area {m3/s-m2}
  ,                                       !- Air Changes per Hour {1/hr}
  0,                                      !- Constant Term Coefficient
  0,                                      !- Temperature Term Coefficient
  0.224,                                  !- Velocity Term Coefficient
  0;                                      !- Velocity Squared Term Coefficient

ZoneControl:Thermostat,
  DU_BT=Space Function_ST=Dwelling units general_FL=Building Story 2_SCHG Thermostat, !- Name
  DU_BT=Space Function_ST=Dwelling units general_FL=Building Story 2_SCHG, !- Zone or ZoneList Name
  DU_BT=Space Function_ST=Dwelling units general_FL=Building Story 2_SCHG Thermostat Schedule, !- Control Type Schedule Name
  ThermostatSetpoint:DualSetpoint,        !- Control 1 Object Type
  Space Function Dwelling units general Thermostat 39, !- Control 1 Name
  ,                                       !- Control 2 Object Type
  ,                                       !- Control 2 Name
  ,                                       !- Control 3 Object Type
  ,                                       !- Control 3 Name
  ,                                       !- Control 4 Object Type
  ,                                       !- Control 4 Name
  0;                                      !- Temperature Difference Between Cutout And Setpoint {deltaC}

Schedule:Compact,
  DU_BT=Space Function_ST=Dwelling units general_FL=Building Story 2_SCHG Thermostat Schedule, !- Name
  DU_BT=Space Function_ST=Dwelling units general_FL=Building Story 2_SCHG Thermostat Schedule Type Limits, !- Schedule Type Limits Name
  Through: 12/31,                         !- Field 1
  For: AllDays,                           !- Field 2
  Until: 24:00,                           !- Field 3
  4;                                      !- Field 4

ScheduleTypeLimits,
  DU_BT=Space Function_ST=Dwelling units general_FL=Building Story 2_SCHG Thermostat Schedule Type Limits, !- Name
  0,                                      !- Lower Limit Value {BasedOnField A3}
  4,                                      !- Upper Limit Value {BasedOnField A3}
  DISCRETE;                               !- Numeric Type

ThermostatSetpoint:DualSetpoint,
  Space Function Dwelling units general Thermostat 39, !- Name
  NECB-G-Thermostat Setpoint-Heating,     !- Heating Setpoint Temperature Schedule Name
  NECB-G-Thermostat Setpoint-Cooling;     !- Cooling Setpoint Temperature Schedule Name

ZoneHVAC:EquipmentConnections,
  DU_BT=Space Function_ST=Dwelling units general_FL=Building Story 2_SCHG, !- Zone Name
  DU_BT=Space Function_ST=Dwelling units general_FL=Building Story 2_SCHG Equipment List, !- Zone Conditioning Equipment List Name
  DU_BT=Space Function_ST=Dwelling units general_FL=Building Story 2_SCHG Inlet Node List, !- Zone Air Inlet Node or NodeList Name
  DU_BT=Space Function_ST=Dwelling units general_FL=Building Story 2_SCHG Exhaust Node List, !- Zone Air Exhaust Node or NodeList Name
  DU_BT=Space Function_ST=Dwelling units general_FL=Building Story 2_SCHG Zone Air Node, !- Zone Air Node Name
  DU_BT=Space Function_ST=Dwelling units general_FL=Building Story 2_SCHG Return Node List; !- Zone Return Air Node or NodeList Name

NodeList,
  DU_BT=Space Function_ST=Dwelling units general_FL=Building Story 2_SCHG Inlet Node List, !- Name
  Air Terminal Single Duct Constant Volume No Reheat 7 Outlet Air Node, !- Node Name 1
  ZoneHVACPackagedTerminalAirConditioner 6 Outlet Air Node; !- Node Name 2

NodeList,
  DU_BT=Space Function_ST=Dwelling units general_FL=Building Story 2_SCHG Exhaust Node List, !- Name
  ZoneHVACPackagedTerminalAirConditioner 6 Inlet Air Node; !- Node Name 1

NodeList,
  DU_BT=Space Function_ST=Dwelling units general_FL=Building Story 2_SCHG Return Node List, !- Name
  DU_BT=Space Function_ST=Dwelling units general_FL=Building Story 2_SCHG Return Air Node; !- Node Name 1

AirTerminal:SingleDuct:ConstantVolume:NoReheat,
  Air Terminal Single Duct Constant Volume No Reheat 7, !- Name
  Always On Discrete,                     !- Availability Schedule Name
  Air Terminal Single Duct Constant Volume No Reheat 7 Inlet Air Node, !- Air Inlet Node Name
  Air Terminal Single Duct Constant Volume No Reheat 7 Outlet Air Node, !- Air Outlet Node Name
  AutoSize;                               !- Maximum Air Flow Rate {m3/s}

ZoneHVAC:AirDistributionUnit,
  ADU Air Terminal Single Duct Constant Volume No Reheat 7, !- Name
  Air Terminal Single Duct Constant Volume No Reheat 7 Outlet Air Node, !- Air Distribution Unit Outlet Node Name
  AirTerminal:SingleDuct:ConstantVolume:NoReheat, !- Air Terminal Object Type
  Air Terminal Single Duct Constant Volume No Reheat 7; !- Air Terminal Name

ZoneHVAC:PackagedTerminalAirConditioner,
  ZoneHVACPackagedTerminalAirConditioner 6, !- Name
  Always On Discrete,                     !- Availability Schedule Name
  ZoneHVACPackagedTerminalAirConditioner 6 Inlet Air Node, !- Air Inlet Node Name
  ZoneHVACPackagedTerminalAirConditioner 6 Outlet Air Node, !- Air Outlet Node Name
  OutdoorAir:Mixer,                       !- Outdoor Air Mixer Object Type
  ZoneHVACPackagedTerminalAirConditioner 6 OA Mixer, !- Outdoor Air Mixer Name
  Autosize,                               !- Cooling Supply Air Flow Rate {m3/s}
  Autosize,                               !- Heating Supply Air Flow Rate {m3/s}
  Autosize,                               !- No Load Supply Air Flow Rate {m3/s}
  Yes,                                    !- No Load Supply Air Flow Rate Control Set To Low Speed
  1e-06,                                  !- Cooling Outdoor Air Flow Rate {m3/s}
  1e-06,                                  !- Heating Outdoor Air Flow Rate {m3/s}
  1e-06,                                  !- No Load Outdoor Air Flow Rate {m3/s}
  Fan:OnOff,                              !- Supply Air Fan Object Type
  FanOnOff 6,                             !- Supply Air Fan Name
  Coil:Heating:Electric,                  !- Heating Coil Object Type
  CoilHeatingElectric 7,                  !- Heating Coil Name
  Coil:Cooling:DX:SingleSpeed,            !- Cooling Coil Object Type
  CoilCoolingDXSingleSpeed_PTAC 6 16kBtu/hr 9.5EER, !- Cooling Coil Name
  DrawThrough,                            !- Fan Placement
  Always Off Discrete;                    !- Supply Air Fan Operating Mode Schedule Name

OutdoorAir:Mixer,
  ZoneHVACPackagedTerminalAirConditioner 6 OA Mixer, !- Name
  ZoneHVACPackagedTerminalAirConditioner 6 Mixed Air Node, !- Mixed Air Node Name
  ZoneHVACPackagedTerminalAirConditioner 6 OA Node, !- Outdoor Air Stream Node Name
  ZoneHVACPackagedTerminalAirConditioner 6 Relief Air Node, !- Relief Air Stream Node Name
  ZoneHVACPackagedTerminalAirConditioner 6 Inlet Air Node; !- Return Air Stream Node Name

OutdoorAir:NodeList,
  ZoneHVACPackagedTerminalAirConditioner 6 OA Node; !- Node or NodeList Name 1

Fan:OnOff,
  FanOnOff 6,                             !- Name
  Always On Discrete,                     !- Availability Schedule Name
  0.39975,                                !- Fan Total Efficiency
  331.2882503,                            !- Pressure Rise {Pa}
  Autosize,                               !- Maximum Flow Rate {m3/s}
  0.615,                                  !- Motor Efficiency
  1,                                      !- Motor In Airstream Fraction
  ZoneHVACPackagedTerminalAirConditioner 6 Heating Coil Outlet Node, !- Air Inlet Node Name
  ZoneHVACPackagedTerminalAirConditioner 6 Outlet Air Node, !- Air Outlet Node Name
  Fan On Off Power Curve 6,               !- Fan Power Ratio Function of Speed Ratio Curve Name
  Fan On Off Efficiency Curve 6,          !- Fan Efficiency Ratio Function of Speed Ratio Curve Name
  General;                                !- End-Use Subcategory

Curve:Exponent,
  Fan On Off Power Curve 6,               !- Name
  1,                                      !- Coefficient1 Constant
  0,                                      !- Coefficient2 Constant
  0,                                      !- Coefficient3 Constant
  0,                                      !- Minimum Value of x {BasedOnField A2}
  1;                                      !- Maximum Value of x {BasedOnField A2}

Curve:Cubic,
  Fan On Off Efficiency Curve 6,          !- Name
  1,                                      !- Coefficient1 Constant
  0,                                      !- Coefficient2 x
  0,                                      !- Coefficient3 x**2
  0,                                      !- Coefficient4 x**3
  0,                                      !- Minimum Value of x {BasedOnField A2}
  1;                                      !- Maximum Value of x {BasedOnField A2}

Coil:Heating:Electric,
  CoilHeatingElectric 7,                  !- Name
  Always Off Discrete,                    !- Availability Schedule Name
  1,                                      !- Efficiency
  Autosize,                               !- Nominal Capacity {W}
  ZoneHVACPackagedTerminalAirConditioner 6 Cooling Coil Outlet Node, !- Air Inlet Node Name
  ZoneHVACPackagedTerminalAirConditioner 6 Heating Coil Outlet Node; !- Air Outlet Node Name

Coil:Cooling:DX:SingleSpeed,
  CoilCoolingDXSingleSpeed_PTAC 6 16kBtu/hr 9.5EER, !- Name
  Always On Discrete,                     !- Availability Schedule Name
  Autosize,                               !- Gross Rated Total Cooling Capacity {W}
  Autosize,                               !- Gross Rated Sensible Heat Ratio
  3.30019905299558,                       !- Gross Rated Cooling COP {W/W}
  Autosize,                               !- Rated Air Flow Rate {m3/s}
  773.3,                                  !- Rated Evaporator Fan Power Per Volume Flow Rate 2017 {W/(m3/s)}
  934.4,                                  !- Rated Evaporator Fan Power Per Volume Flow Rate 2023 {W/(m3/s)}
  ZoneHVACPackagedTerminalAirConditioner 6 Mixed Air Node, !- Air Inlet Node Name
  ZoneHVACPackagedTerminalAirConditioner 6 Cooling Coil Outlet Node, !- Air Outlet Node Name
  DXCOOL-NECB2011-REF-CAPFT,              !- Total Cooling Capacity Function of Temperature Curve Name
  DXCOOL-NECB2011-REF-CAPFFLOW,           !- Total Cooling Capacity Function of Flow Fraction Curve Name
  DXCOOL-NECB2011-REF-COOLEIRFT,          !- Energy Input Ratio Function of Temperature Curve Name
  DXCOOL-NECB2011-REF-COOLEIRFFLOW,       !- Energy Input Ratio Function of Flow Fraction Curve Name
  DXCOOL-NECB2011-REF-COOLPLFFPLR,        !- Part Load Fraction Correlation Curve Name
  -25,                                    !- Minimum Outdoor Dry-Bulb Temperature for Compressor Operation {C}
  0,                                      !- Nominal Time for Condensate Removal to Begin {s}
  0,                                      !- Ratio of Initial Moisture Evaporation Rate and Steady State Latent Capacity {dimensionless}
  0,                                      !- Maximum Cycling Rate {cycles/hr}
  0,                                      !- Latent Capacity Time Constant {s}
  ,                                       !- Condenser Air Inlet Node Name
  AirCooled,                              !- Condenser Type
  0.9,                                    !- Evaporative Condenser Effectiveness {dimensionless}
  Autosize,                               !- Evaporative Condenser Air Flow Rate {m3/s}
  Autosize,                               !- Evaporative Condenser Pump Rated Power Consumption {W}
  1e-06,                                  !- Crankcase Heater Capacity {W}
  ,                                       !- Crankcase Heater Capacity Function of Temperature Curve Name
  10,                                     !- Maximum Outdoor Dry-Bulb Temperature for Crankcase Heater Operation {C}
  ,                                       !- Supply Water Storage Tank Name
  ,                                       !- Condensate Collection Water Storage Tank Name
  0,                                      !- Basin Heater Capacity {W/K}
  2;                                      !- Basin Heater Setpoint Temperature {C}

ZoneHVAC:Baseboard:Convective:Electric,
  ZoneHVACBaseboardConvectiveElectric 6,  !- Name
  Always On Discrete,                     !- Availability Schedule Name
  ,                                       !- Heating Design Capacity Method
  Autosize,                               !- Heating Design Capacity {W}
  ,                                       !- Heating Design Capacity Per Floor Area {W/m2}
  ,                                       !- Fraction of Autosized Heating Design Capacity
  1;                                      !- Efficiency

ZoneHVAC:EquipmentList,
  DU_BT=Space Function_ST=Dwelling units general_FL=Building Story 2_SCHG Equipment List, !- Name
  SequentialLoad,                         !- Load Distribution Scheme
  ZoneHVAC:AirDistributionUnit,           !- Zone Equipment Object Type 1
  ADU Air Terminal Single Duct Constant Volume No Reheat 7, !- Zone Equipment Name 1
  1,                                      !- Zone Equipment Cooling Sequence 1
  1,                                      !- Zone Equipment Heating or No-Load Sequence 1
  ,                                       !- Zone Equipment Sequential Cooling Fraction Schedule Name 1
  ,                                       !- Zone Equipment Sequential Heating Fraction Schedule Name 1
  ZoneHVAC:PackagedTerminalAirConditioner, !- Zone Equipment Object Type 2
  ZoneHVACPackagedTerminalAirConditioner 6, !- Zone Equipment Name 2
  2,                                      !- Zone Equipment Cooling Sequence 2
  2,                                      !- Zone Equipment Heating or No-Load Sequence 2
  ,                                       !- Zone Equipment Sequential Cooling Fraction Schedule Name 2
  ,                                       !- Zone Equipment Sequential Heating Fraction Schedule Name 2
  ZoneHVAC:Baseboard:Convective:Electric, !- Zone Equipment Object Type 3
  ZoneHVACBaseboardConvectiveElectric 6,  !- Zone Equipment Name 3
  3,                                      !- Zone Equipment Cooling Sequence 3
  3,                                      !- Zone Equipment Heating or No-Load Sequence 3
  ,                                       !- Zone Equipment Sequential Cooling Fraction Schedule Name 3
  ;                                       !- Zone Equipment Sequential Heating Fraction Schedule Name 3

Sizing:Zone,
  DU_BT=Space Function_ST=Dwelling units general_FL=Building Story 2_SCHG, !- Zone or ZoneList Name
  TemperatureDifference,                  !- Zone Cooling Design Supply Air Temperature Input Method
  13,                                     !- Zone Cooling Design Supply Air Temperature {C}
  11,                                     !- Zone Cooling Design Supply Air Temperature Difference {deltaC}
  TemperatureDifference,                  !- Zone Heating Design Supply Air Temperature Input Method
  43,                                     !- Zone Heating Design Supply Air Temperature {C}
  21,                                     !- Zone Heating Design Supply Air Temperature Difference {deltaC}
  0.0085,                                 !- Zone Cooling Design Supply Air Humidity Ratio {kgWater/kgDryAir}
  0.008,                                  !- Zone Heating Design Supply Air Humidity Ratio {kgWater/kgDryAir}
  DU_BT=Space Function_ST=Dwelling units general_FL=Building Story 2_SCHG DSOA Space List, !- Design Specification Outdoor Air Object Name
  1.3,                                    !- Zone Heating Sizing Factor
  1.1,                                    !- Zone Cooling Sizing Factor
  DesignDay,                              !- Cooling Design Air Flow Method
  0,                                      !- Cooling Design Air Flow Rate {m3/s}
  0.000762,                               !- Cooling Minimum Air Flow per Zone Floor Area {m3/s-m2}
  0,                                      !- Cooling Minimum Air Flow {m3/s}
  0,                                      !- Cooling Minimum Air Flow Fraction
  DesignDay,                              !- Heating Design Air Flow Method
  0,                                      !- Heating Design Air Flow Rate {m3/s}
  0.002032,                               !- Heating Maximum Air Flow per Zone Floor Area {m3/s-m2}
  0.1415762,                              !- Heating Maximum Air Flow {m3/s}
  0.3,                                    !- Heating Maximum Air Flow Fraction
  ,                                       !- Design Specification Zone Air Distribution Object Name
  No,                                     !- Account for Dedicated Outdoor Air System
  ,                                       !- Dedicated Outdoor Air System Control Strategy
  ,                                       !- Dedicated Outdoor Air Low Setpoint Temperature for Design {C}
  ,                                       !- Dedicated Outdoor Air High Setpoint Temperature for Design {C}
  Sensible Load Only No Latent Load,      !- Zone Load Sizing Method
  HumidityRatioDifference,                !- Zone Latent Cooling Design Supply Air Humidity Ratio Input Method
  ,                                       !- Zone Dehumidification Design Supply Air Humidity Ratio {kgWater/kgDryAir}
  0.005,                                  !- Zone Cooling Design Supply Air Humidity Ratio Difference {kgWater/kgDryAir}
  HumidityRatioDifference,                !- Zone Latent Heating Design Supply Air Humidity Ratio Input Method
  ,                                       !- Zone Humidification Design Supply Air Humidity Ratio {kgWater/kgDryAir}
  0.005,                                  !- Zone Humidification Design Supply Air Humidity Ratio Difference {kgWater/kgDryAir}
  ,                                       !- Zone Humidistat Dehumidification Set Point Schedule Name
  ,                                       !- Zone Humidistat Humidification Set Point Schedule Name
  Coincident;                             !- Type of Space Sum to Use

DesignSpecification:OutdoorAir:SpaceList,
  DU_BT=Space Function_ST=Dwelling units general_FL=Building Story 2_SCHG DSOA Space List, !- Name
  M N1 Apartment,                         !- Space Name 1
  Space Function Dwelling units general Ventilation; !- Space Design Specification Outdoor Air Object Name 1

Zone,
  DU_BT=Space Function_ST=Dwelling units general_FL=Building Story 2_SCHG 10, !- Name
  0,                                      !- Direction of Relative North {deg}
  0,                                      !- X Origin {m}
  0,                                      !- Y Origin {m}
  3.04785135876431,                       !- Z Origin {m}
  ,                                       !- Type
  1,                                      !- Multiplier
  ,                                       !- Ceiling Height {m}
  ,                                       !- Volume {m3}
  ,                                       !- Floor Area {m2}
  ,                                       !- Zone Inside Convection Algorithm
  ,                                       !- Zone Outside Convection Algorithm
  Yes;                                    !- Part of Total Floor Area

Space,
  M SW Apartment,                         !- Name
  DU_BT=Space Function_ST=Dwelling units general_FL=Building Story 2_SCHG 10, !- Zone Name
  ,                                       !- Ceiling Height {m}
  268.970649348193,                       !- Volume {m3}
  ,                                       !- Floor Area {m2}
  Space Function Dwelling units general;  !- Space Type

BuildingSurface:Detailed,
  m Ceilin SWA,                           !- Name
  Ceiling,                                !- Surface Type
  BTAP-Int-Wall,                          !- Construction Name
  DU_BT=Space Function_ST=Dwelling units general_FL=Building Story 2_SCHG 10, !- Zone Name
  M SW Apartment,                         !- Space Name
  Adiabatic,                              !- Outside Boundary Condition
  ,                                       !- Outside Boundary Condition Object
  NoSun,                                  !- Sun Exposure
  NoWind,                                 !- Wind Exposure
  ,                                       !- View Factor to Ground
  ,                                       !- Number of Vertices
  11.581835, 0, 3.047851,                 !- X,Y,Z Vertex 1 {m}
  11.581835, 7.619628, 3.047851,          !- X,Y,Z Vertex 2 {m}
  0, 7.619628, 3.047851,                  !- X,Y,Z Vertex 3 {m}
  0, 0, 3.047851;                         !- X,Y,Z Vertex 4 {m}

BuildingSurface:Detailed,
  m EIWALL SWA,                           !- Name
  Wall,                                   !- Surface Type
  BTAP-Int-Wall,                          !- Construction Name
  DU_BT=Space Function_ST=Dwelling units general_FL=Building Story 2_SCHG 10, !- Zone Name
  M SW Apartment,                         !- Space Name
  Surface,                                !- Outside Boundary Condition
  m EIWALL SWA Reversed,                  !- Outside Boundary Condition Object
  NoSun,                                  !- Sun Exposure
  NoWind,                                 !- Wind Exposure
  ,                                       !- View Factor to Ground
  ,                                       !- Number of Vertices
  11.581835, 0, 3.047851,                 !- X,Y,Z Vertex 1 {m}
  11.581835, 0, 0,                        !- X,Y,Z Vertex 2 {m}
  11.581835, 7.619628, 0,                 !- X,Y,Z Vertex 3 {m}
  11.581835, 7.619628, 3.047851;          !- X,Y,Z Vertex 4 {m}

BuildingSurface:Detailed,
  m GFloor SWA,                           !- Name
  Floor,                                  !- Surface Type
  BTAP-Int-Wall,                          !- Construction Name
  DU_BT=Space Function_ST=Dwelling units general_FL=Building Story 2_SCHG 10, !- Zone Name
  M SW Apartment,                         !- Space Name
  Adiabatic,                              !- Outside Boundary Condition
  ,                                       !- Outside Boundary Condition Object
  NoSun,                                  !- Sun Exposure
  NoWind,                                 !- Wind Exposure
  ,                                       !- View Factor to Ground
  ,                                       !- Number of Vertices
  11.581835, 7.619628, -3.5876430981574e-07, !- X,Y,Z Vertex 1 {m}
  11.581835, 0, -3.5876430981574e-07,     !- X,Y,Z Vertex 2 {m}
  0, 0, -3.5876430981574e-07,             !- X,Y,Z Vertex 3 {m}
  0, 7.619628, -3.5876430981574e-07;      !- X,Y,Z Vertex 4 {m}

BuildingSurface:Detailed,
  m NIWall SWA,                           !- Name
  Wall,                                   !- Surface Type
  BTAP-Int-Wall,                          !- Construction Name
  DU_BT=Space Function_ST=Dwelling units general_FL=Building Story 2_SCHG 10, !- Zone Name
  M SW Apartment,                         !- Space Name
  Surface,                                !- Outside Boundary Condition
  m NIWall SWA Reversed,                  !- Outside Boundary Condition Object
  NoSun,                                  !- Sun Exposure
  NoWind,                                 !- Wind Exposure
  ,                                       !- View Factor to Ground
  ,                                       !- Number of Vertices
  11.581835, 7.619628, 3.047851,          !- X,Y,Z Vertex 1 {m}
  11.581835, 7.619628, 0,                 !- X,Y,Z Vertex 2 {m}
  0, 7.619628, 0,                         !- X,Y,Z Vertex 3 {m}
  0, 7.619628, 3.047851;                  !- X,Y,Z Vertex 4 {m}

BuildingSurface:Detailed,
  m SWall SWA,                            !- Name
  Wall,                                   !- Surface Type
  BTAP-Ext-Wall-Mass:U-0.29,              !- Construction Name
  DU_BT=Space Function_ST=Dwelling units general_FL=Building Story 2_SCHG 10, !- Zone Name
  M SW Apartment,                         !- Space Name
  Outdoors,                               !- Outside Boundary Condition
  ,                                       !- Outside Boundary Condition Object
  SunExposed,                             !- Sun Exposure
  WindExposed,                            !- Wind Exposure
  ,                                       !- View Factor to Ground
  ,                                       !- Number of Vertices
  0, 0, 3.047851,                         !- X,Y,Z Vertex 1 {m}
  0, 0, 0,                                !- X,Y,Z Vertex 2 {m}
  11.581835, 0, 0,                        !- X,Y,Z Vertex 3 {m}
  11.581835, 0, 3.047851;                 !- X,Y,Z Vertex 4 {m}

FenestrationSurface:Detailed,
  m SWall SWA_FixedWindow,                !- Name
  Window,                                 !- Surface Type
  BTAP-Ext-FixedWindow:U=0.280 SHGC=0.600, !- Construction Name
  m SWall SWA,                            !- Building Surface Name
  ,                                       !- Outside Boundary Condition Object
  ,                                       !- View Factor to Ground
  ,                                       !- Frame and Divider Name
  ,                                       !- Multiplier
  ,                                       !- Number of Vertices
  0.0254, 0, 1.78140567865181,            !- X,Y,Z Vertex 1 {m}
  0.0254, 0, 0.762,                       !- X,Y,Z Vertex 2 {m}
  11.556435, 0, 0.762,                    !- X,Y,Z Vertex 3 {m}
  11.556435, 0, 1.78140567865181;         !- X,Y,Z Vertex 4 {m}

BuildingSurface:Detailed,
  m WWall SWA,                            !- Name
  Wall,                                   !- Surface Type
  BTAP-Ext-Wall-Mass:U-0.29,              !- Construction Name
  DU_BT=Space Function_ST=Dwelling units general_FL=Building Story 2_SCHG 10, !- Zone Name
  M SW Apartment,                         !- Space Name
  Outdoors,                               !- Outside Boundary Condition
  ,                                       !- Outside Boundary Condition Object
  SunExposed,                             !- Sun Exposure
  WindExposed,                            !- Wind Exposure
  ,                                       !- View Factor to Ground
  ,                                       !- Number of Vertices
  0, 7.619628, 3.047851,                  !- X,Y,Z Vertex 1 {m}
  0, 7.619628, 0,                         !- X,Y,Z Vertex 2 {m}
  0, 0, 0,                                !- X,Y,Z Vertex 3 {m}
  0, 0, 3.047851;                         !- X,Y,Z Vertex 4 {m}

FenestrationSurface:Detailed,
  m WWall SWA_FixedWindow,                !- Name
  Window,                                 !- Surface Type
  BTAP-Ext-FixedWindow:U=0.280 SHGC=0.600, !- Construction Name
  m WWall SWA,                            !- Building Surface Name
  ,                                       !- Outside Boundary Condition Object
  ,                                       !- View Factor to Ground
  ,                                       !- Frame and Divider Name
  ,                                       !- Multiplier
  ,                                       !- Number of Vertices
  0, 7.594228, 1.78374635793937,          !- X,Y,Z Vertex 1 {m}
  0, 7.594228, 0.762,                     !- X,Y,Z Vertex 2 {m}
  0, 0.0253999999999994, 0.762,           !- X,Y,Z Vertex 3 {m}
  0, 0.0253999999999994, 1.78374635793937; !- X,Y,Z Vertex 4 {m}

ZoneInfiltration:DesignFlowRate,
  M SW Apartment Infiltration,            !- Name
  M SW Apartment,                         !- Zone or ZoneList or Space or SpaceList Name
  Always On Discrete,                     !- Schedule Name
  Flow/ExteriorArea,                      !- Design Flow Rate Calculation Method
  ,                                       !- Design Flow Rate {m3/s}
  ,                                       !- Flow Rate per Floor Area {m3/s-m2}
  0.00447586595596712,                    !- Flow Rate per Exterior Surface Area {m3/s-m2}
  ,                                       !- Air Changes per Hour {1/hr}
  0,                                      !- Constant Term Coefficient
  0,                                      !- Temperature Term Coefficient
  0.224,                                  !- Velocity Term Coefficient
  0;                                      !- Velocity Squared Term Coefficient

ZoneControl:Thermostat,
  DU_BT=Space Function_ST=Dwelling units general_FL=Building Story 2_SCHG 10 Thermostat, !- Name
  DU_BT=Space Function_ST=Dwelling units general_FL=Building Story 2_SCHG 10, !- Zone or ZoneList Name
  DU_BT=Space Function_ST=Dwelling units general_FL=Building Story 2_SCHG 10 Thermostat Schedule, !- Control Type Schedule Name
  ThermostatSetpoint:DualSetpoint,        !- Control 1 Object Type
  Space Function Dwelling units general Thermostat 50, !- Control 1 Name
  ,                                       !- Control 2 Object Type
  ,                                       !- Control 2 Name
  ,                                       !- Control 3 Object Type
  ,                                       !- Control 3 Name
  ,                                       !- Control 4 Object Type
  ,                                       !- Control 4 Name
  0;                                      !- Temperature Difference Between Cutout And Setpoint {deltaC}

Schedule:Compact,
  DU_BT=Space Function_ST=Dwelling units general_FL=Building Story 2_SCHG 10 Thermostat Schedule, !- Name
  DU_BT=Space Function_ST=Dwelling units general_FL=Building Story 2_SCHG 10 Thermostat Schedule Type Limits, !- Schedule Type Limits Name
  Through: 12/31,                         !- Field 1
  For: AllDays,                           !- Field 2
  Until: 24:00,                           !- Field 3
  4;                                      !- Field 4

ScheduleTypeLimits,
  DU_BT=Space Function_ST=Dwelling units general_FL=Building Story 2_SCHG 10 Thermostat Schedule Type Limits, !- Name
  0,                                      !- Lower Limit Value {BasedOnField A3}
  4,                                      !- Upper Limit Value {BasedOnField A3}
  DISCRETE;                               !- Numeric Type

ThermostatSetpoint:DualSetpoint,
  Space Function Dwelling units general Thermostat 50, !- Name
  NECB-G-Thermostat Setpoint-Heating,     !- Heating Setpoint Temperature Schedule Name
  NECB-G-Thermostat Setpoint-Cooling;     !- Cooling Setpoint Temperature Schedule Name

ZoneHVAC:EquipmentConnections,
  DU_BT=Space Function_ST=Dwelling units general_FL=Building Story 2_SCHG 10, !- Zone Name
  DU_BT=Space Function_ST=Dwelling units general_FL=Building Story 2_SCHG 10 Equipment List, !- Zone Conditioning Equipment List Name
  DU_BT=Space Function_ST=Dwelling units general_FL=Building Story 2_SCHG 10 Inlet Node List, !- Zone Air Inlet Node or NodeList Name
  DU_BT=Space Function_ST=Dwelling units general_FL=Building Story 2_SCHG 10 Exhaust Node List, !- Zone Air Exhaust Node or NodeList Name
  DU_BT=Space Function_ST=Dwelling units general_FL=Building Story 2_SCHG 10 Zone Air Node, !- Zone Air Node Name
  DU_BT=Space Function_ST=Dwelling units general_FL=Building Story 2_SCHG 10 Return Node List; !- Zone Return Air Node or NodeList Name

NodeList,
  DU_BT=Space Function_ST=Dwelling units general_FL=Building Story 2_SCHG 10 Inlet Node List, !- Name
  Air Terminal Single Duct Constant Volume No Reheat 8 Outlet Air Node, !- Node Name 1
  ZoneHVACPackagedTerminalAirConditioner 7 Outlet Air Node; !- Node Name 2

NodeList,
  DU_BT=Space Function_ST=Dwelling units general_FL=Building Story 2_SCHG 10 Exhaust Node List, !- Name
  ZoneHVACPackagedTerminalAirConditioner 7 Inlet Air Node; !- Node Name 1

NodeList,
  DU_BT=Space Function_ST=Dwelling units general_FL=Building Story 2_SCHG 10 Return Node List, !- Name
  DU_BT=Space Function_ST=Dwelling units general_FL=Building Story 2_SCHG 10 Return Air Node; !- Node Name 1

AirTerminal:SingleDuct:ConstantVolume:NoReheat,
  Air Terminal Single Duct Constant Volume No Reheat 8, !- Name
  Always On Discrete,                     !- Availability Schedule Name
  Air Terminal Single Duct Constant Volume No Reheat 8 Inlet Air Node, !- Air Inlet Node Name
  Air Terminal Single Duct Constant Volume No Reheat 8 Outlet Air Node, !- Air Outlet Node Name
  AutoSize;                               !- Maximum Air Flow Rate {m3/s}

ZoneHVAC:AirDistributionUnit,
  ADU Air Terminal Single Duct Constant Volume No Reheat 8, !- Name
  Air Terminal Single Duct Constant Volume No Reheat 8 Outlet Air Node, !- Air Distribution Unit Outlet Node Name
  AirTerminal:SingleDuct:ConstantVolume:NoReheat, !- Air Terminal Object Type
  Air Terminal Single Duct Constant Volume No Reheat 8; !- Air Terminal Name

ZoneHVAC:PackagedTerminalAirConditioner,
  ZoneHVACPackagedTerminalAirConditioner 7, !- Name
  Always On Discrete,                     !- Availability Schedule Name
  ZoneHVACPackagedTerminalAirConditioner 7 Inlet Air Node, !- Air Inlet Node Name
  ZoneHVACPackagedTerminalAirConditioner 7 Outlet Air Node, !- Air Outlet Node Name
  OutdoorAir:Mixer,                       !- Outdoor Air Mixer Object Type
  ZoneHVACPackagedTerminalAirConditioner 7 OA Mixer, !- Outdoor Air Mixer Name
  Autosize,                               !- Cooling Supply Air Flow Rate {m3/s}
  Autosize,                               !- Heating Supply Air Flow Rate {m3/s}
  Autosize,                               !- No Load Supply Air Flow Rate {m3/s}
  Yes,                                    !- No Load Supply Air Flow Rate Control Set To Low Speed
  1e-06,                                  !- Cooling Outdoor Air Flow Rate {m3/s}
  1e-06,                                  !- Heating Outdoor Air Flow Rate {m3/s}
  1e-06,                                  !- No Load Outdoor Air Flow Rate {m3/s}
  Fan:OnOff,                              !- Supply Air Fan Object Type
  FanOnOff 7,                             !- Supply Air Fan Name
  Coil:Heating:Electric,                  !- Heating Coil Object Type
  CoilHeatingElectric 8,                  !- Heating Coil Name
  Coil:Cooling:DX:SingleSpeed,            !- Cooling Coil Object Type
  CoilCoolingDXSingleSpeed_PTAC 7 26kBtu/hr 9.5EER, !- Cooling Coil Name
  DrawThrough,                            !- Fan Placement
  Always Off Discrete;                    !- Supply Air Fan Operating Mode Schedule Name

OutdoorAir:Mixer,
  ZoneHVACPackagedTerminalAirConditioner 7 OA Mixer, !- Name
  ZoneHVACPackagedTerminalAirConditioner 7 Mixed Air Node, !- Mixed Air Node Name
  ZoneHVACPackagedTerminalAirConditioner 7 OA Node, !- Outdoor Air Stream Node Name
  ZoneHVACPackagedTerminalAirConditioner 7 Relief Air Node, !- Relief Air Stream Node Name
  ZoneHVACPackagedTerminalAirConditioner 7 Inlet Air Node; !- Return Air Stream Node Name

OutdoorAir:NodeList,
  ZoneHVACPackagedTerminalAirConditioner 7 OA Node; !- Node or NodeList Name 1

Fan:OnOff,
  FanOnOff 7,                             !- Name
  Always On Discrete,                     !- Availability Schedule Name
  0.39975,                                !- Fan Total Efficiency
  331.2882503,                            !- Pressure Rise {Pa}
  Autosize,                               !- Maximum Flow Rate {m3/s}
  0.615,                                  !- Motor Efficiency
  1,                                      !- Motor In Airstream Fraction
  ZoneHVACPackagedTerminalAirConditioner 7 Heating Coil Outlet Node, !- Air Inlet Node Name
  ZoneHVACPackagedTerminalAirConditioner 7 Outlet Air Node, !- Air Outlet Node Name
  Fan On Off Power Curve 7,               !- Fan Power Ratio Function of Speed Ratio Curve Name
  Fan On Off Efficiency Curve 7,          !- Fan Efficiency Ratio Function of Speed Ratio Curve Name
  General;                                !- End-Use Subcategory

Curve:Exponent,
  Fan On Off Power Curve 7,               !- Name
  1,                                      !- Coefficient1 Constant
  0,                                      !- Coefficient2 Constant
  0,                                      !- Coefficient3 Constant
  0,                                      !- Minimum Value of x {BasedOnField A2}
  1;                                      !- Maximum Value of x {BasedOnField A2}

Curve:Cubic,
  Fan On Off Efficiency Curve 7,          !- Name
  1,                                      !- Coefficient1 Constant
  0,                                      !- Coefficient2 x
  0,                                      !- Coefficient3 x**2
  0,                                      !- Coefficient4 x**3
  0,                                      !- Minimum Value of x {BasedOnField A2}
  1;                                      !- Maximum Value of x {BasedOnField A2}

Coil:Heating:Electric,
  CoilHeatingElectric 8,                  !- Name
  Always Off Discrete,                    !- Availability Schedule Name
  1,                                      !- Efficiency
  Autosize,                               !- Nominal Capacity {W}
  ZoneHVACPackagedTerminalAirConditioner 7 Cooling Coil Outlet Node, !- Air Inlet Node Name
  ZoneHVACPackagedTerminalAirConditioner 7 Heating Coil Outlet Node; !- Air Outlet Node Name

Coil:Cooling:DX:SingleSpeed,
  CoilCoolingDXSingleSpeed_PTAC 7 26kBtu/hr 9.5EER, !- Name
  Always On Discrete,                     !- Availability Schedule Name
  Autosize,                               !- Gross Rated Total Cooling Capacity {W}
  Autosize,                               !- Gross Rated Sensible Heat Ratio
  3.30019905299558,                       !- Gross Rated Cooling COP {W/W}
  Autosize,                               !- Rated Air Flow Rate {m3/s}
  773.3,                                  !- Rated Evaporator Fan Power Per Volume Flow Rate 2017 {W/(m3/s)}
  934.4,                                  !- Rated Evaporator Fan Power Per Volume Flow Rate 2023 {W/(m3/s)}
  ZoneHVACPackagedTerminalAirConditioner 7 Mixed Air Node, !- Air Inlet Node Name
  ZoneHVACPackagedTerminalAirConditioner 7 Cooling Coil Outlet Node, !- Air Outlet Node Name
  DXCOOL-NECB2011-REF-CAPFT,              !- Total Cooling Capacity Function of Temperature Curve Name
  DXCOOL-NECB2011-REF-CAPFFLOW,           !- Total Cooling Capacity Function of Flow Fraction Curve Name
  DXCOOL-NECB2011-REF-COOLEIRFT,          !- Energy Input Ratio Function of Temperature Curve Name
  DXCOOL-NECB2011-REF-COOLEIRFFLOW,       !- Energy Input Ratio Function of Flow Fraction Curve Name
  DXCOOL-NECB2011-REF-COOLPLFFPLR,        !- Part Load Fraction Correlation Curve Name
  -25,                                    !- Minimum Outdoor Dry-Bulb Temperature for Compressor Operation {C}
  0,                                      !- Nominal Time for Condensate Removal to Begin {s}
  0,                                      !- Ratio of Initial Moisture Evaporation Rate and Steady State Latent Capacity {dimensionless}
  0,                                      !- Maximum Cycling Rate {cycles/hr}
  0,                                      !- Latent Capacity Time Constant {s}
  ,                                       !- Condenser Air Inlet Node Name
  AirCooled,                              !- Condenser Type
  0.9,                                    !- Evaporative Condenser Effectiveness {dimensionless}
  Autosize,                               !- Evaporative Condenser Air Flow Rate {m3/s}
  Autosize,                               !- Evaporative Condenser Pump Rated Power Consumption {W}
  1e-06,                                  !- Crankcase Heater Capacity {W}
  ,                                       !- Crankcase Heater Capacity Function of Temperature Curve Name
  10,                                     !- Maximum Outdoor Dry-Bulb Temperature for Crankcase Heater Operation {C}
  ,                                       !- Supply Water Storage Tank Name
  ,                                       !- Condensate Collection Water Storage Tank Name
  0,                                      !- Basin Heater Capacity {W/K}
  2;                                      !- Basin Heater Setpoint Temperature {C}

ZoneHVAC:Baseboard:Convective:Electric,
  ZoneHVACBaseboardConvectiveElectric 7,  !- Name
  Always On Discrete,                     !- Availability Schedule Name
  ,                                       !- Heating Design Capacity Method
  Autosize,                               !- Heating Design Capacity {W}
  ,                                       !- Heating Design Capacity Per Floor Area {W/m2}
  ,                                       !- Fraction of Autosized Heating Design Capacity
  1;                                      !- Efficiency

ZoneHVAC:EquipmentList,
  DU_BT=Space Function_ST=Dwelling units general_FL=Building Story 2_SCHG 10 Equipment List, !- Name
  SequentialLoad,                         !- Load Distribution Scheme
  ZoneHVAC:AirDistributionUnit,           !- Zone Equipment Object Type 1
  ADU Air Terminal Single Duct Constant Volume No Reheat 8, !- Zone Equipment Name 1
  1,                                      !- Zone Equipment Cooling Sequence 1
  1,                                      !- Zone Equipment Heating or No-Load Sequence 1
  ,                                       !- Zone Equipment Sequential Cooling Fraction Schedule Name 1
  ,                                       !- Zone Equipment Sequential Heating Fraction Schedule Name 1
  ZoneHVAC:PackagedTerminalAirConditioner, !- Zone Equipment Object Type 2
  ZoneHVACPackagedTerminalAirConditioner 7, !- Zone Equipment Name 2
  2,                                      !- Zone Equipment Cooling Sequence 2
  2,                                      !- Zone Equipment Heating or No-Load Sequence 2
  ,                                       !- Zone Equipment Sequential Cooling Fraction Schedule Name 2
  ,                                       !- Zone Equipment Sequential Heating Fraction Schedule Name 2
  ZoneHVAC:Baseboard:Convective:Electric, !- Zone Equipment Object Type 3
  ZoneHVACBaseboardConvectiveElectric 7,  !- Zone Equipment Name 3
  3,                                      !- Zone Equipment Cooling Sequence 3
  3,                                      !- Zone Equipment Heating or No-Load Sequence 3
  ,                                       !- Zone Equipment Sequential Cooling Fraction Schedule Name 3
  ;                                       !- Zone Equipment Sequential Heating Fraction Schedule Name 3

Sizing:Zone,
  DU_BT=Space Function_ST=Dwelling units general_FL=Building Story 2_SCHG 10, !- Zone or ZoneList Name
  TemperatureDifference,                  !- Zone Cooling Design Supply Air Temperature Input Method
  13,                                     !- Zone Cooling Design Supply Air Temperature {C}
  11,                                     !- Zone Cooling Design Supply Air Temperature Difference {deltaC}
  TemperatureDifference,                  !- Zone Heating Design Supply Air Temperature Input Method
  43,                                     !- Zone Heating Design Supply Air Temperature {C}
  21,                                     !- Zone Heating Design Supply Air Temperature Difference {deltaC}
  0.0085,                                 !- Zone Cooling Design Supply Air Humidity Ratio {kgWater/kgDryAir}
  0.008,                                  !- Zone Heating Design Supply Air Humidity Ratio {kgWater/kgDryAir}
  DU_BT=Space Function_ST=Dwelling units general_FL=Building Story 2_SCHG 10 DSOA Space List, !- Design Specification Outdoor Air Object Name
  1.3,                                    !- Zone Heating Sizing Factor
  1.1,                                    !- Zone Cooling Sizing Factor
  DesignDay,                              !- Cooling Design Air Flow Method
  0,                                      !- Cooling Design Air Flow Rate {m3/s}
  0.000762,                               !- Cooling Minimum Air Flow per Zone Floor Area {m3/s-m2}
  0,                                      !- Cooling Minimum Air Flow {m3/s}
  0,                                      !- Cooling Minimum Air Flow Fraction
  DesignDay,                              !- Heating Design Air Flow Method
  0,                                      !- Heating Design Air Flow Rate {m3/s}
  0.002032,                               !- Heating Maximum Air Flow per Zone Floor Area {m3/s-m2}
  0.1415762,                              !- Heating Maximum Air Flow {m3/s}
  0.3,                                    !- Heating Maximum Air Flow Fraction
  ,                                       !- Design Specification Zone Air Distribution Object Name
  No,                                     !- Account for Dedicated Outdoor Air System
  ,                                       !- Dedicated Outdoor Air System Control Strategy
  ,                                       !- Dedicated Outdoor Air Low Setpoint Temperature for Design {C}
  ,                                       !- Dedicated Outdoor Air High Setpoint Temperature for Design {C}
  Sensible Load Only No Latent Load,      !- Zone Load Sizing Method
  HumidityRatioDifference,                !- Zone Latent Cooling Design Supply Air Humidity Ratio Input Method
  ,                                       !- Zone Dehumidification Design Supply Air Humidity Ratio {kgWater/kgDryAir}
  0.005,                                  !- Zone Cooling Design Supply Air Humidity Ratio Difference {kgWater/kgDryAir}
  HumidityRatioDifference,                !- Zone Latent Heating Design Supply Air Humidity Ratio Input Method
  ,                                       !- Zone Humidification Design Supply Air Humidity Ratio {kgWater/kgDryAir}
  0.005,                                  !- Zone Humidification Design Supply Air Humidity Ratio Difference {kgWater/kgDryAir}
  ,                                       !- Zone Humidistat Dehumidification Set Point Schedule Name
  ,                                       !- Zone Humidistat Humidification Set Point Schedule Name
  Coincident;                             !- Type of Space Sum to Use

DesignSpecification:OutdoorAir:SpaceList,
  DU_BT=Space Function_ST=Dwelling units general_FL=Building Story 2_SCHG 10 DSOA Space List, !- Name
  M SW Apartment,                         !- Space Name 1
  Space Function Dwelling units general Ventilation; !- Space Design Specification Outdoor Air Object Name 1

Zone,
  DU_BT=Space Function_ST=Dwelling units general_FL=Building Story 2_SCHG 11, !- Name
  0,                                      !- Direction of Relative North {deg}
  11.5818351633044,                       !- X Origin {m}
  0,                                      !- Y Origin {m}
  3.04785135876431,                       !- Z Origin {m}
  ,                                       !- Type
  1,                                      !- Multiplier
  ,                                       !- Ceiling Height {m}
  ,                                       !- Volume {m3}
  ,                                       !- Floor Area {m2}
  ,                                       !- Zone Inside Convection Algorithm
  ,                                       !- Zone Outside Convection Algorithm
  Yes;                                    !- Part of Total Floor Area

Space,
  M S1 Apartment,                         !- Name
  DU_BT=Space Function_ST=Dwelling units general_FL=Building Story 2_SCHG 11, !- Zone Name
  ,                                       !- Ceiling Height {m}
  268.970640690879,                       !- Volume {m3}
  ,                                       !- Floor Area {m2}
  Space Function Dwelling units general;  !- Space Type

BuildingSurface:Detailed,
  m Ceilin S1A,                           !- Name
  Ceiling,                                !- Surface Type
  BTAP-Int-Wall,                          !- Construction Name
  DU_BT=Space Function_ST=Dwelling units general_FL=Building Story 2_SCHG 11, !- Zone Name
  M S1 Apartment,                         !- Space Name
  Adiabatic,                              !- Outside Boundary Condition
  ,                                       !- Outside Boundary Condition Object
  NoSun,                                  !- Sun Exposure
  NoWind,                                 !- Wind Exposure
  ,                                       !- View Factor to Ground
  ,                                       !- Number of Vertices
  11.581835, 0, 3.047851,                 !- X,Y,Z Vertex 1 {m}
  11.581835, 7.619628, 3.047851,          !- X,Y,Z Vertex 2 {m}
  0, 7.619628, 3.047851,                  !- X,Y,Z Vertex 3 {m}
  0, 0, 3.047851;                         !- X,Y,Z Vertex 4 {m}

BuildingSurface:Detailed,
  m EIWALL S1A,                           !- Name
  Wall,                                   !- Surface Type
  BTAP-Int-Wall,                          !- Construction Name
  DU_BT=Space Function_ST=Dwelling units general_FL=Building Story 2_SCHG 11, !- Zone Name
  M S1 Apartment,                         !- Space Name
  Surface,                                !- Outside Boundary Condition
  m EIWALL S2A Reversed,                  !- Outside Boundary Condition Object
  NoSun,                                  !- Sun Exposure
  NoWind,                                 !- Wind Exposure
  ,                                       !- View Factor to Ground
  ,                                       !- Number of Vertices
  11.581835, 0, 3.047851,                 !- X,Y,Z Vertex 1 {m}
  11.581835, 0, 0,                        !- X,Y,Z Vertex 2 {m}
  11.581835, 7.619628, 0,                 !- X,Y,Z Vertex 3 {m}
  11.581835, 7.619628, 3.047851;          !- X,Y,Z Vertex 4 {m}

BuildingSurface:Detailed,
  m EIWALL SWA Reversed,                  !- Name
  Wall,                                   !- Surface Type
  BTAP-Int-Wall,                          !- Construction Name
  DU_BT=Space Function_ST=Dwelling units general_FL=Building Story 2_SCHG 11, !- Zone Name
  M S1 Apartment,                         !- Space Name
  Surface,                                !- Outside Boundary Condition
  m EIWALL SWA,                           !- Outside Boundary Condition Object
  NoSun,                                  !- Sun Exposure
  NoWind,                                 !- Wind Exposure
  ,                                       !- View Factor to Ground
  ,                                       !- Number of Vertices
  0, 7.619628, 3.047851,                  !- X,Y,Z Vertex 1 {m}
  -1.63304399336539e-07, 7.619628, 0,     !- X,Y,Z Vertex 2 {m}
  -1.63304399336539e-07, 0, 0,            !- X,Y,Z Vertex 3 {m}
  0, 0, 3.047851;                         !- X,Y,Z Vertex 4 {m}

BuildingSurface:Detailed,
  m GFloor S1A,                           !- Name
  Floor,                                  !- Surface Type
  BTAP-Int-Wall,                          !- Construction Name
  DU_BT=Space Function_ST=Dwelling units general_FL=Building Story 2_SCHG 11, !- Zone Name
  M S1 Apartment,                         !- Space Name
  Adiabatic,                              !- Outside Boundary Condition
  ,                                       !- Outside Boundary Condition Object
  NoSun,                                  !- Sun Exposure
  NoWind,                                 !- Wind Exposure
  ,                                       !- View Factor to Ground
  ,                                       !- Number of Vertices
  11.581835, 7.619628, 0,                 !- X,Y,Z Vertex 1 {m}
  11.581835, 0, 0,                        !- X,Y,Z Vertex 2 {m}
  0, 0, 0,                                !- X,Y,Z Vertex 3 {m}
  0, 7.619628, 0;                         !- X,Y,Z Vertex 4 {m}

BuildingSurface:Detailed,
  m NIWall S1A,                           !- Name
  Wall,                                   !- Surface Type
  BTAP-Int-Wall,                          !- Construction Name
  DU_BT=Space Function_ST=Dwelling units general_FL=Building Story 2_SCHG 11, !- Zone Name
  M S1 Apartment,                         !- Space Name
  Surface,                                !- Outside Boundary Condition
  m NIWall S1A Reversed,                  !- Outside Boundary Condition Object
  NoSun,                                  !- Sun Exposure
  NoWind,                                 !- Wind Exposure
  ,                                       !- View Factor to Ground
  ,                                       !- Number of Vertices
  11.581835, 7.619628, 3.047851,          !- X,Y,Z Vertex 1 {m}
  11.581835, 7.619628, 0,                 !- X,Y,Z Vertex 2 {m}
  -1.63304399336539e-07, 7.619628, 0,     !- X,Y,Z Vertex 3 {m}
  0, 7.619628, 3.047851;                  !- X,Y,Z Vertex 4 {m}

BuildingSurface:Detailed,
  m SWall S1A,                            !- Name
  Wall,                                   !- Surface Type
  BTAP-Ext-Wall-Mass:U-0.29,              !- Construction Name
  DU_BT=Space Function_ST=Dwelling units general_FL=Building Story 2_SCHG 11, !- Zone Name
  M S1 Apartment,                         !- Space Name
  Outdoors,                               !- Outside Boundary Condition
  ,                                       !- Outside Boundary Condition Object
  SunExposed,                             !- Sun Exposure
  WindExposed,                            !- Wind Exposure
  ,                                       !- View Factor to Ground
  ,                                       !- Number of Vertices
  0, 0, 3.047851,                         !- X,Y,Z Vertex 1 {m}
  -1.63304399336539e-07, 0, 0,            !- X,Y,Z Vertex 2 {m}
  11.581835, 0, 0,                        !- X,Y,Z Vertex 3 {m}
  11.581835, 0, 3.047851;                 !- X,Y,Z Vertex 4 {m}

FenestrationSurface:Detailed,
  m SWall S1A_FixedWindow,                !- Name
  Window,                                 !- Surface Type
  BTAP-Ext-FixedWindow:U=0.280 SHGC=0.600, !- Construction Name
  m SWall S1A,                            !- Building Surface Name
  ,                                       !- Outside Boundary Condition Object
  ,                                       !- View Factor to Ground
  ,                                       !- Frame and Divider Name
  ,                                       !- Multiplier
  ,                                       !- Number of Vertices
  0.0253998366956007, 0, 1.78140567858849, !- X,Y,Z Vertex 1 {m}
  0.0253998366956007, 0, 0.762,           !- X,Y,Z Vertex 2 {m}
  11.556435, 0, 0.762,                    !- X,Y,Z Vertex 3 {m}
  11.556435, 0, 1.78140567858849;         !- X,Y,Z Vertex 4 {m}

ZoneInfiltration:DesignFlowRate,
  M S1 Apartment Infiltration,            !- Name
  M S1 Apartment,                         !- Zone or ZoneList or Space or SpaceList Name
  Always On Discrete,                     !- Schedule Name
  Flow/ExteriorArea,                      !- Design Flow Rate Calculation Method
  ,                                       !- Design Flow Rate {m3/s}
  ,                                       !- Flow Rate per Floor Area {m3/s-m2}
  0.00447586595596712,                    !- Flow Rate per Exterior Surface Area {m3/s-m2}
  ,                                       !- Air Changes per Hour {1/hr}
  0,                                      !- Constant Term Coefficient
  0,                                      !- Temperature Term Coefficient
  0.224,                                  !- Velocity Term Coefficient
  0;                                      !- Velocity Squared Term Coefficient

ZoneControl:Thermostat,
  DU_BT=Space Function_ST=Dwelling units general_FL=Building Story 2_SCHG 11 Thermostat, !- Name
  DU_BT=Space Function_ST=Dwelling units general_FL=Building Story 2_SCHG 11, !- Zone or ZoneList Name
  DU_BT=Space Function_ST=Dwelling units general_FL=Building Story 2_SCHG 11 Thermostat Schedule, !- Control Type Schedule Name
  ThermostatSetpoint:DualSetpoint,        !- Control 1 Object Type
  Space Function Dwelling units general Thermostat 52, !- Control 1 Name
  ,                                       !- Control 2 Object Type
  ,                                       !- Control 2 Name
  ,                                       !- Control 3 Object Type
  ,                                       !- Control 3 Name
  ,                                       !- Control 4 Object Type
  ,                                       !- Control 4 Name
  0;                                      !- Temperature Difference Between Cutout And Setpoint {deltaC}

Schedule:Compact,
  DU_BT=Space Function_ST=Dwelling units general_FL=Building Story 2_SCHG 11 Thermostat Schedule, !- Name
  DU_BT=Space Function_ST=Dwelling units general_FL=Building Story 2_SCHG 11 Thermostat Schedule Type Limits, !- Schedule Type Limits Name
  Through: 12/31,                         !- Field 1
  For: AllDays,                           !- Field 2
  Until: 24:00,                           !- Field 3
  4;                                      !- Field 4

ScheduleTypeLimits,
  DU_BT=Space Function_ST=Dwelling units general_FL=Building Story 2_SCHG 11 Thermostat Schedule Type Limits, !- Name
  0,                                      !- Lower Limit Value {BasedOnField A3}
  4,                                      !- Upper Limit Value {BasedOnField A3}
  DISCRETE;                               !- Numeric Type

ThermostatSetpoint:DualSetpoint,
  Space Function Dwelling units general Thermostat 52, !- Name
  NECB-G-Thermostat Setpoint-Heating,     !- Heating Setpoint Temperature Schedule Name
  NECB-G-Thermostat Setpoint-Cooling;     !- Cooling Setpoint Temperature Schedule Name

ZoneHVAC:EquipmentConnections,
  DU_BT=Space Function_ST=Dwelling units general_FL=Building Story 2_SCHG 11, !- Zone Name
  DU_BT=Space Function_ST=Dwelling units general_FL=Building Story 2_SCHG 11 Equipment List, !- Zone Conditioning Equipment List Name
  DU_BT=Space Function_ST=Dwelling units general_FL=Building Story 2_SCHG 11 Inlet Node List, !- Zone Air Inlet Node or NodeList Name
  DU_BT=Space Function_ST=Dwelling units general_FL=Building Story 2_SCHG 11 Exhaust Node List, !- Zone Air Exhaust Node or NodeList Name
  DU_BT=Space Function_ST=Dwelling units general_FL=Building Story 2_SCHG 11 Zone Air Node, !- Zone Air Node Name
  DU_BT=Space Function_ST=Dwelling units general_FL=Building Story 2_SCHG 11 Return Node List; !- Zone Return Air Node or NodeList Name

NodeList,
  DU_BT=Space Function_ST=Dwelling units general_FL=Building Story 2_SCHG 11 Inlet Node List, !- Name
  Air Terminal Single Duct Constant Volume No Reheat 9 Outlet Air Node, !- Node Name 1
  ZoneHVACPackagedTerminalAirConditioner 8 Outlet Air Node; !- Node Name 2

NodeList,
  DU_BT=Space Function_ST=Dwelling units general_FL=Building Story 2_SCHG 11 Exhaust Node List, !- Name
  ZoneHVACPackagedTerminalAirConditioner 8 Inlet Air Node; !- Node Name 1

NodeList,
  DU_BT=Space Function_ST=Dwelling units general_FL=Building Story 2_SCHG 11 Return Node List, !- Name
  DU_BT=Space Function_ST=Dwelling units general_FL=Building Story 2_SCHG 11 Return Air Node; !- Node Name 1

AirTerminal:SingleDuct:ConstantVolume:NoReheat,
  Air Terminal Single Duct Constant Volume No Reheat 9, !- Name
  Always On Discrete,                     !- Availability Schedule Name
  Air Terminal Single Duct Constant Volume No Reheat 9 Inlet Air Node, !- Air Inlet Node Name
  Air Terminal Single Duct Constant Volume No Reheat 9 Outlet Air Node, !- Air Outlet Node Name
  AutoSize;                               !- Maximum Air Flow Rate {m3/s}

ZoneHVAC:AirDistributionUnit,
  ADU Air Terminal Single Duct Constant Volume No Reheat 9, !- Name
  Air Terminal Single Duct Constant Volume No Reheat 9 Outlet Air Node, !- Air Distribution Unit Outlet Node Name
  AirTerminal:SingleDuct:ConstantVolume:NoReheat, !- Air Terminal Object Type
  Air Terminal Single Duct Constant Volume No Reheat 9; !- Air Terminal Name

ZoneHVAC:PackagedTerminalAirConditioner,
  ZoneHVACPackagedTerminalAirConditioner 8, !- Name
  Always On Discrete,                     !- Availability Schedule Name
  ZoneHVACPackagedTerminalAirConditioner 8 Inlet Air Node, !- Air Inlet Node Name
  ZoneHVACPackagedTerminalAirConditioner 8 Outlet Air Node, !- Air Outlet Node Name
  OutdoorAir:Mixer,                       !- Outdoor Air Mixer Object Type
  ZoneHVACPackagedTerminalAirConditioner 8 OA Mixer, !- Outdoor Air Mixer Name
  Autosize,                               !- Cooling Supply Air Flow Rate {m3/s}
  Autosize,                               !- Heating Supply Air Flow Rate {m3/s}
  Autosize,                               !- No Load Supply Air Flow Rate {m3/s}
  Yes,                                    !- No Load Supply Air Flow Rate Control Set To Low Speed
  1e-06,                                  !- Cooling Outdoor Air Flow Rate {m3/s}
  1e-06,                                  !- Heating Outdoor Air Flow Rate {m3/s}
  1e-06,                                  !- No Load Outdoor Air Flow Rate {m3/s}
  Fan:OnOff,                              !- Supply Air Fan Object Type
  FanOnOff 8,                             !- Supply Air Fan Name
  Coil:Heating:Electric,                  !- Heating Coil Object Type
  CoilHeatingElectric 9,                  !- Heating Coil Name
  Coil:Cooling:DX:SingleSpeed,            !- Cooling Coil Object Type
  CoilCoolingDXSingleSpeed_PTAC 8 20kBtu/hr 9.5EER, !- Cooling Coil Name
  DrawThrough,                            !- Fan Placement
  Always Off Discrete;                    !- Supply Air Fan Operating Mode Schedule Name

OutdoorAir:Mixer,
  ZoneHVACPackagedTerminalAirConditioner 8 OA Mixer, !- Name
  ZoneHVACPackagedTerminalAirConditioner 8 Mixed Air Node, !- Mixed Air Node Name
  ZoneHVACPackagedTerminalAirConditioner 8 OA Node, !- Outdoor Air Stream Node Name
  ZoneHVACPackagedTerminalAirConditioner 8 Relief Air Node, !- Relief Air Stream Node Name
  ZoneHVACPackagedTerminalAirConditioner 8 Inlet Air Node; !- Return Air Stream Node Name

OutdoorAir:NodeList,
  ZoneHVACPackagedTerminalAirConditioner 8 OA Node; !- Node or NodeList Name 1

Fan:OnOff,
  FanOnOff 8,                             !- Name
  Always On Discrete,                     !- Availability Schedule Name
  0.39975,                                !- Fan Total Efficiency
  331.2882503,                            !- Pressure Rise {Pa}
  Autosize,                               !- Maximum Flow Rate {m3/s}
  0.615,                                  !- Motor Efficiency
  1,                                      !- Motor In Airstream Fraction
  ZoneHVACPackagedTerminalAirConditioner 8 Heating Coil Outlet Node, !- Air Inlet Node Name
  ZoneHVACPackagedTerminalAirConditioner 8 Outlet Air Node, !- Air Outlet Node Name
  Fan On Off Power Curve 8,               !- Fan Power Ratio Function of Speed Ratio Curve Name
  Fan On Off Efficiency Curve 8,          !- Fan Efficiency Ratio Function of Speed Ratio Curve Name
  General;                                !- End-Use Subcategory

Curve:Exponent,
  Fan On Off Power Curve 8,               !- Name
  1,                                      !- Coefficient1 Constant
  0,                                      !- Coefficient2 Constant
  0,                                      !- Coefficient3 Constant
  0,                                      !- Minimum Value of x {BasedOnField A2}
  1;                                      !- Maximum Value of x {BasedOnField A2}

Curve:Cubic,
  Fan On Off Efficiency Curve 8,          !- Name
  1,                                      !- Coefficient1 Constant
  0,                                      !- Coefficient2 x
  0,                                      !- Coefficient3 x**2
  0,                                      !- Coefficient4 x**3
  0,                                      !- Minimum Value of x {BasedOnField A2}
  1;                                      !- Maximum Value of x {BasedOnField A2}

Coil:Heating:Electric,
  CoilHeatingElectric 9,                  !- Name
  Always Off Discrete,                    !- Availability Schedule Name
  1,                                      !- Efficiency
  Autosize,                               !- Nominal Capacity {W}
  ZoneHVACPackagedTerminalAirConditioner 8 Cooling Coil Outlet Node, !- Air Inlet Node Name
  ZoneHVACPackagedTerminalAirConditioner 8 Heating Coil Outlet Node; !- Air Outlet Node Name

Coil:Cooling:DX:SingleSpeed,
  CoilCoolingDXSingleSpeed_PTAC 8 20kBtu/hr 9.5EER, !- Name
  Always On Discrete,                     !- Availability Schedule Name
  Autosize,                               !- Gross Rated Total Cooling Capacity {W}
  Autosize,                               !- Gross Rated Sensible Heat Ratio
  3.30019905299558,                       !- Gross Rated Cooling COP {W/W}
  Autosize,                               !- Rated Air Flow Rate {m3/s}
  773.3,                                  !- Rated Evaporator Fan Power Per Volume Flow Rate 2017 {W/(m3/s)}
  934.4,                                  !- Rated Evaporator Fan Power Per Volume Flow Rate 2023 {W/(m3/s)}
  ZoneHVACPackagedTerminalAirConditioner 8 Mixed Air Node, !- Air Inlet Node Name
  ZoneHVACPackagedTerminalAirConditioner 8 Cooling Coil Outlet Node, !- Air Outlet Node Name
  DXCOOL-NECB2011-REF-CAPFT,              !- Total Cooling Capacity Function of Temperature Curve Name
  DXCOOL-NECB2011-REF-CAPFFLOW,           !- Total Cooling Capacity Function of Flow Fraction Curve Name
  DXCOOL-NECB2011-REF-COOLEIRFT,          !- Energy Input Ratio Function of Temperature Curve Name
  DXCOOL-NECB2011-REF-COOLEIRFFLOW,       !- Energy Input Ratio Function of Flow Fraction Curve Name
  DXCOOL-NECB2011-REF-COOLPLFFPLR,        !- Part Load Fraction Correlation Curve Name
  -25,                                    !- Minimum Outdoor Dry-Bulb Temperature for Compressor Operation {C}
  0,                                      !- Nominal Time for Condensate Removal to Begin {s}
  0,                                      !- Ratio of Initial Moisture Evaporation Rate and Steady State Latent Capacity {dimensionless}
  0,                                      !- Maximum Cycling Rate {cycles/hr}
  0,                                      !- Latent Capacity Time Constant {s}
  ,                                       !- Condenser Air Inlet Node Name
  AirCooled,                              !- Condenser Type
  0.9,                                    !- Evaporative Condenser Effectiveness {dimensionless}
  Autosize,                               !- Evaporative Condenser Air Flow Rate {m3/s}
  Autosize,                               !- Evaporative Condenser Pump Rated Power Consumption {W}
  1e-06,                                  !- Crankcase Heater Capacity {W}
  ,                                       !- Crankcase Heater Capacity Function of Temperature Curve Name
  10,                                     !- Maximum Outdoor Dry-Bulb Temperature for Crankcase Heater Operation {C}
  ,                                       !- Supply Water Storage Tank Name
  ,                                       !- Condensate Collection Water Storage Tank Name
  0,                                      !- Basin Heater Capacity {W/K}
  2;                                      !- Basin Heater Setpoint Temperature {C}

ZoneHVAC:Baseboard:Convective:Electric,
  ZoneHVACBaseboardConvectiveElectric 8,  !- Name
  Always On Discrete,                     !- Availability Schedule Name
  ,                                       !- Heating Design Capacity Method
  Autosize,                               !- Heating Design Capacity {W}
  ,                                       !- Heating Design Capacity Per Floor Area {W/m2}
  ,                                       !- Fraction of Autosized Heating Design Capacity
  1;                                      !- Efficiency

ZoneHVAC:EquipmentList,
  DU_BT=Space Function_ST=Dwelling units general_FL=Building Story 2_SCHG 11 Equipment List, !- Name
  SequentialLoad,                         !- Load Distribution Scheme
  ZoneHVAC:AirDistributionUnit,           !- Zone Equipment Object Type 1
  ADU Air Terminal Single Duct Constant Volume No Reheat 9, !- Zone Equipment Name 1
  1,                                      !- Zone Equipment Cooling Sequence 1
  1,                                      !- Zone Equipment Heating or No-Load Sequence 1
  ,                                       !- Zone Equipment Sequential Cooling Fraction Schedule Name 1
  ,                                       !- Zone Equipment Sequential Heating Fraction Schedule Name 1
  ZoneHVAC:PackagedTerminalAirConditioner, !- Zone Equipment Object Type 2
  ZoneHVACPackagedTerminalAirConditioner 8, !- Zone Equipment Name 2
  2,                                      !- Zone Equipment Cooling Sequence 2
  2,                                      !- Zone Equipment Heating or No-Load Sequence 2
  ,                                       !- Zone Equipment Sequential Cooling Fraction Schedule Name 2
  ,                                       !- Zone Equipment Sequential Heating Fraction Schedule Name 2
  ZoneHVAC:Baseboard:Convective:Electric, !- Zone Equipment Object Type 3
  ZoneHVACBaseboardConvectiveElectric 8,  !- Zone Equipment Name 3
  3,                                      !- Zone Equipment Cooling Sequence 3
  3,                                      !- Zone Equipment Heating or No-Load Sequence 3
  ,                                       !- Zone Equipment Sequential Cooling Fraction Schedule Name 3
  ;                                       !- Zone Equipment Sequential Heating Fraction Schedule Name 3

Sizing:Zone,
  DU_BT=Space Function_ST=Dwelling units general_FL=Building Story 2_SCHG 11, !- Zone or ZoneList Name
  TemperatureDifference,                  !- Zone Cooling Design Supply Air Temperature Input Method
  13,                                     !- Zone Cooling Design Supply Air Temperature {C}
  11,                                     !- Zone Cooling Design Supply Air Temperature Difference {deltaC}
  TemperatureDifference,                  !- Zone Heating Design Supply Air Temperature Input Method
  43,                                     !- Zone Heating Design Supply Air Temperature {C}
  21,                                     !- Zone Heating Design Supply Air Temperature Difference {deltaC}
  0.0085,                                 !- Zone Cooling Design Supply Air Humidity Ratio {kgWater/kgDryAir}
  0.008,                                  !- Zone Heating Design Supply Air Humidity Ratio {kgWater/kgDryAir}
  DU_BT=Space Function_ST=Dwelling units general_FL=Building Story 2_SCHG 11 DSOA Space List, !- Design Specification Outdoor Air Object Name
  1.3,                                    !- Zone Heating Sizing Factor
  1.1,                                    !- Zone Cooling Sizing Factor
  DesignDay,                              !- Cooling Design Air Flow Method
  0,                                      !- Cooling Design Air Flow Rate {m3/s}
  0.000762,                               !- Cooling Minimum Air Flow per Zone Floor Area {m3/s-m2}
  0,                                      !- Cooling Minimum Air Flow {m3/s}
  0,                                      !- Cooling Minimum Air Flow Fraction
  DesignDay,                              !- Heating Design Air Flow Method
  0,                                      !- Heating Design Air Flow Rate {m3/s}
  0.002032,                               !- Heating Maximum Air Flow per Zone Floor Area {m3/s-m2}
  0.1415762,                              !- Heating Maximum Air Flow {m3/s}
  0.3,                                    !- Heating Maximum Air Flow Fraction
  ,                                       !- Design Specification Zone Air Distribution Object Name
  No,                                     !- Account for Dedicated Outdoor Air System
  ,                                       !- Dedicated Outdoor Air System Control Strategy
  ,                                       !- Dedicated Outdoor Air Low Setpoint Temperature for Design {C}
  ,                                       !- Dedicated Outdoor Air High Setpoint Temperature for Design {C}
  Sensible Load Only No Latent Load,      !- Zone Load Sizing Method
  HumidityRatioDifference,                !- Zone Latent Cooling Design Supply Air Humidity Ratio Input Method
  ,                                       !- Zone Dehumidification Design Supply Air Humidity Ratio {kgWater/kgDryAir}
  0.005,                                  !- Zone Cooling Design Supply Air Humidity Ratio Difference {kgWater/kgDryAir}
  HumidityRatioDifference,                !- Zone Latent Heating Design Supply Air Humidity Ratio Input Method
  ,                                       !- Zone Humidification Design Supply Air Humidity Ratio {kgWater/kgDryAir}
  0.005,                                  !- Zone Humidification Design Supply Air Humidity Ratio Difference {kgWater/kgDryAir}
  ,                                       !- Zone Humidistat Dehumidification Set Point Schedule Name
  ,                                       !- Zone Humidistat Humidification Set Point Schedule Name
  Coincident;                             !- Type of Space Sum to Use

DesignSpecification:OutdoorAir:SpaceList,
  DU_BT=Space Function_ST=Dwelling units general_FL=Building Story 2_SCHG 11 DSOA Space List, !- Name
  M S1 Apartment,                         !- Space Name 1
  Space Function Dwelling units general Ventilation; !- Space Design Specification Outdoor Air Object Name 1

Zone,
  DU_BT=Space Function_ST=Dwelling units general_FL=Building Story 2_SCHG 12, !- Name
  0,                                      !- Direction of Relative North {deg}
  23.1636701633044,                       !- X Origin {m}
  9.29594664423115,                       !- Y Origin {m}
  3.04785135876431,                       !- Z Origin {m}
  ,                                       !- Type
  1,                                      !- Multiplier
  ,                                       !- Ceiling Height {m}
  ,                                       !- Volume {m3}
  ,                                       !- Floor Area {m2}
  ,                                       !- Zone Inside Convection Algorithm
  ,                                       !- Zone Outside Convection Algorithm
  Yes;                                    !- Part of Total Floor Area

Space,
  M NE Apartment,                         !- Name
  DU_BT=Space Function_ST=Dwelling units general_FL=Building Story 2_SCHG 12, !- Zone Name
  ,                                       !- Ceiling Height {m}
  268.970649348193,                       !- Volume {m3}
  ,                                       !- Floor Area {m2}
  Space Function Dwelling units general;  !- Space Type

BuildingSurface:Detailed,
  m Ceilin NEA,                           !- Name
  Ceiling,                                !- Surface Type
  BTAP-Int-Wall,                          !- Construction Name
  DU_BT=Space Function_ST=Dwelling units general_FL=Building Story 2_SCHG 12, !- Zone Name
  M NE Apartment,                         !- Space Name
  Adiabatic,                              !- Outside Boundary Condition
  ,                                       !- Outside Boundary Condition Object
  NoSun,                                  !- Sun Exposure
  NoWind,                                 !- Wind Exposure
  ,                                       !- View Factor to Ground
  ,                                       !- Number of Vertices
  11.581835, 0, 3.047851,                 !- X,Y,Z Vertex 1 {m}
  11.581835, 7.619628, 3.047851,          !- X,Y,Z Vertex 2 {m}
  0, 7.619628, 3.047851,                  !- X,Y,Z Vertex 3 {m}
  0, 0, 3.047851;                         !- X,Y,Z Vertex 4 {m}

BuildingSurface:Detailed,
  m EIWALL N2A Reversed,                  !- Name
  Wall,                                   !- Surface Type
  BTAP-Int-Wall,                          !- Construction Name
  DU_BT=Space Function_ST=Dwelling units general_FL=Building Story 2_SCHG 12, !- Zone Name
  M NE Apartment,                         !- Space Name
  Surface,                                !- Outside Boundary Condition
  m EIWALL N1A,                           !- Outside Boundary Condition Object
  NoSun,                                  !- Sun Exposure
  NoWind,                                 !- Wind Exposure
  ,                                       !- View Factor to Ground
  ,                                       !- Number of Vertices
  0, 7.619628, 3.047851,                  !- X,Y,Z Vertex 1 {m}
  0, 7.619628, 0,                         !- X,Y,Z Vertex 2 {m}
  0, 0, 0,                                !- X,Y,Z Vertex 3 {m}
  0, 0, 3.047851;                         !- X,Y,Z Vertex 4 {m}

BuildingSurface:Detailed,
  m EWall NEA,                            !- Name
  Wall,                                   !- Surface Type
  BTAP-Ext-Wall-Mass:U-0.29,              !- Construction Name
  DU_BT=Space Function_ST=Dwelling units general_FL=Building Story 2_SCHG 12, !- Zone Name
  M NE Apartment,                         !- Space Name
  Outdoors,                               !- Outside Boundary Condition
  ,                                       !- Outside Boundary Condition Object
  SunExposed,                             !- Sun Exposure
  WindExposed,                            !- Wind Exposure
  ,                                       !- View Factor to Ground
  ,                                       !- Number of Vertices
  11.581835, 0, 3.047851,                 !- X,Y,Z Vertex 1 {m}
  11.581835, 0, 0,                        !- X,Y,Z Vertex 2 {m}
  11.581835, 7.619628, 0,                 !- X,Y,Z Vertex 3 {m}
  11.581835, 7.619628, 3.047851;          !- X,Y,Z Vertex 4 {m}

FenestrationSurface:Detailed,
  m EWall NEA_FixedWindow,                !- Name
  Window,                                 !- Surface Type
  BTAP-Ext-FixedWindow:U=0.280 SHGC=0.600, !- Construction Name
  m EWall NEA,                            !- Building Surface Name
  ,                                       !- Outside Boundary Condition Object
  ,                                       !- View Factor to Ground
  ,                                       !- Frame and Divider Name
  ,                                       !- Multiplier
  ,                                       !- Number of Vertices
  11.581835, 0.0254, 1.78374635793937,    !- X,Y,Z Vertex 1 {m}
  11.581835, 0.0254, 0.762,               !- X,Y,Z Vertex 2 {m}
  11.581835, 7.594228, 0.762,             !- X,Y,Z Vertex 3 {m}
  11.581835, 7.594228, 1.78374635793937;  !- X,Y,Z Vertex 4 {m}

BuildingSurface:Detailed,
  m GFloor NEA,                           !- Name
  Floor,                                  !- Surface Type
  BTAP-Int-Wall,                          !- Construction Name
  DU_BT=Space Function_ST=Dwelling units general_FL=Building Story 2_SCHG 12, !- Zone Name
  M NE Apartment,                         !- Space Name
  Adiabatic,                              !- Outside Boundary Condition
  ,                                       !- Outside Boundary Condition Object
  NoSun,                                  !- Sun Exposure
  NoWind,                                 !- Wind Exposure
  ,                                       !- View Factor to Ground
  ,                                       !- Number of Vertices
  11.581835, 7.619628, -3.5876430981574e-07, !- X,Y,Z Vertex 1 {m}
  11.581835, 0, -3.5876430981574e-07,     !- X,Y,Z Vertex 2 {m}
  0, 0, -3.5876430981574e-07,             !- X,Y,Z Vertex 3 {m}
  0, 7.619628, -3.5876430981574e-07;      !- X,Y,Z Vertex 4 {m}

BuildingSurface:Detailed,
  m NWall NEA,                            !- Name
  Wall,                                   !- Surface Type
  BTAP-Ext-Wall-Mass:U-0.29,              !- Construction Name
  DU_BT=Space Function_ST=Dwelling units general_FL=Building Story 2_SCHG 12, !- Zone Name
  M NE Apartment,                         !- Space Name
  Outdoors,                               !- Outside Boundary Condition
  ,                                       !- Outside Boundary Condition Object
  SunExposed,                             !- Sun Exposure
  WindExposed,                            !- Wind Exposure
  ,                                       !- View Factor to Ground
  ,                                       !- Number of Vertices
  11.581835, 7.619628, 3.047851,          !- X,Y,Z Vertex 1 {m}
  11.581835, 7.619628, 0,                 !- X,Y,Z Vertex 2 {m}
  0, 7.619628, 0,                         !- X,Y,Z Vertex 3 {m}
  0, 7.619628, 3.047851;                  !- X,Y,Z Vertex 4 {m}

FenestrationSurface:Detailed,
  m NWall NEA_FixedWindow,                !- Name
  Window,                                 !- Surface Type
  BTAP-Ext-FixedWindow:U=0.280 SHGC=0.600, !- Construction Name
  m NWall NEA,                            !- Building Surface Name
  ,                                       !- Outside Boundary Condition Object
  ,                                       !- View Factor to Ground
  ,                                       !- Frame and Divider Name
  ,                                       !- Multiplier
  ,                                       !- Number of Vertices
  11.556435, 7.619628, 1.78140567865181,  !- X,Y,Z Vertex 1 {m}
  11.556435, 7.619628, 0.762,             !- X,Y,Z Vertex 2 {m}
  0.0254000000000012, 7.619628, 0.762,    !- X,Y,Z Vertex 3 {m}
  0.0254000000000012, 7.619628, 1.78140567865181; !- X,Y,Z Vertex 4 {m}

BuildingSurface:Detailed,
  m SIWall NEA,                           !- Name
  Wall,                                   !- Surface Type
  BTAP-Int-Wall,                          !- Construction Name
  DU_BT=Space Function_ST=Dwelling units general_FL=Building Story 2_SCHG 12, !- Zone Name
  M NE Apartment,                         !- Space Name
  Surface,                                !- Outside Boundary Condition
  m SIWall NEA Reversed,                  !- Outside Boundary Condition Object
  NoSun,                                  !- Sun Exposure
  NoWind,                                 !- Wind Exposure
  ,                                       !- View Factor to Ground
  ,                                       !- Number of Vertices
  0, 0, 3.047851,                         !- X,Y,Z Vertex 1 {m}
  0, 0, 0,                                !- X,Y,Z Vertex 2 {m}
  11.581835, 0, 0,                        !- X,Y,Z Vertex 3 {m}
  11.581835, 0, 3.047851;                 !- X,Y,Z Vertex 4 {m}

ZoneInfiltration:DesignFlowRate,
  M NE Apartment Infiltration,            !- Name
  M NE Apartment,                         !- Zone or ZoneList or Space or SpaceList Name
  Always On Discrete,                     !- Schedule Name
  Flow/ExteriorArea,                      !- Design Flow Rate Calculation Method
  ,                                       !- Design Flow Rate {m3/s}
  ,                                       !- Flow Rate per Floor Area {m3/s-m2}
  0.00447586595596712,                    !- Flow Rate per Exterior Surface Area {m3/s-m2}
  ,                                       !- Air Changes per Hour {1/hr}
  0,                                      !- Constant Term Coefficient
  0,                                      !- Temperature Term Coefficient
  0.224,                                  !- Velocity Term Coefficient
  0;                                      !- Velocity Squared Term Coefficient

ZoneControl:Thermostat,
  DU_BT=Space Function_ST=Dwelling units general_FL=Building Story 2_SCHG 12 Thermostat, !- Name
  DU_BT=Space Function_ST=Dwelling units general_FL=Building Story 2_SCHG 12, !- Zone or ZoneList Name
  DU_BT=Space Function_ST=Dwelling units general_FL=Building Story 2_SCHG 12 Thermostat Schedule, !- Control Type Schedule Name
  ThermostatSetpoint:DualSetpoint,        !- Control 1 Object Type
  Space Function Dwelling units general Thermostat 54, !- Control 1 Name
  ,                                       !- Control 2 Object Type
  ,                                       !- Control 2 Name
  ,                                       !- Control 3 Object Type
  ,                                       !- Control 3 Name
  ,                                       !- Control 4 Object Type
  ,                                       !- Control 4 Name
  0;                                      !- Temperature Difference Between Cutout And Setpoint {deltaC}

Schedule:Compact,
  DU_BT=Space Function_ST=Dwelling units general_FL=Building Story 2_SCHG 12 Thermostat Schedule, !- Name
  DU_BT=Space Function_ST=Dwelling units general_FL=Building Story 2_SCHG 12 Thermostat Schedule Type Limits, !- Schedule Type Limits Name
  Through: 12/31,                         !- Field 1
  For: AllDays,                           !- Field 2
  Until: 24:00,                           !- Field 3
  4;                                      !- Field 4

ScheduleTypeLimits,
  DU_BT=Space Function_ST=Dwelling units general_FL=Building Story 2_SCHG 12 Thermostat Schedule Type Limits, !- Name
  0,                                      !- Lower Limit Value {BasedOnField A3}
  4,                                      !- Upper Limit Value {BasedOnField A3}
  DISCRETE;                               !- Numeric Type

ThermostatSetpoint:DualSetpoint,
  Space Function Dwelling units general Thermostat 54, !- Name
  NECB-G-Thermostat Setpoint-Heating,     !- Heating Setpoint Temperature Schedule Name
  NECB-G-Thermostat Setpoint-Cooling;     !- Cooling Setpoint Temperature Schedule Name

ZoneHVAC:EquipmentConnections,
  DU_BT=Space Function_ST=Dwelling units general_FL=Building Story 2_SCHG 12, !- Zone Name
  DU_BT=Space Function_ST=Dwelling units general_FL=Building Story 2_SCHG 12 Equipment List, !- Zone Conditioning Equipment List Name
  DU_BT=Space Function_ST=Dwelling units general_FL=Building Story 2_SCHG 12 Inlet Node List, !- Zone Air Inlet Node or NodeList Name
  DU_BT=Space Function_ST=Dwelling units general_FL=Building Story 2_SCHG 12 Exhaust Node List, !- Zone Air Exhaust Node or NodeList Name
  DU_BT=Space Function_ST=Dwelling units general_FL=Building Story 2_SCHG 12 Zone Air Node, !- Zone Air Node Name
  DU_BT=Space Function_ST=Dwelling units general_FL=Building Story 2_SCHG 12 Return Node List; !- Zone Return Air Node or NodeList Name

NodeList,
  DU_BT=Space Function_ST=Dwelling units general_FL=Building Story 2_SCHG 12 Inlet Node List, !- Name
  Air Terminal Single Duct Constant Volume No Reheat 10 Outlet Air Node, !- Node Name 1
  ZoneHVACPackagedTerminalAirConditioner 9 Outlet Air Node; !- Node Name 2

NodeList,
  DU_BT=Space Function_ST=Dwelling units general_FL=Building Story 2_SCHG 12 Exhaust Node List, !- Name
  ZoneHVACPackagedTerminalAirConditioner 9 Inlet Air Node; !- Node Name 1

NodeList,
  DU_BT=Space Function_ST=Dwelling units general_FL=Building Story 2_SCHG 12 Return Node List, !- Name
  DU_BT=Space Function_ST=Dwelling units general_FL=Building Story 2_SCHG 12 Return Air Node; !- Node Name 1

AirTerminal:SingleDuct:ConstantVolume:NoReheat,
  Air Terminal Single Duct Constant Volume No Reheat 10, !- Name
  Always On Discrete,                     !- Availability Schedule Name
  Air Terminal Single Duct Constant Volume No Reheat 10 Inlet Air Node, !- Air Inlet Node Name
  Air Terminal Single Duct Constant Volume No Reheat 10 Outlet Air Node, !- Air Outlet Node Name
  AutoSize;                               !- Maximum Air Flow Rate {m3/s}

ZoneHVAC:AirDistributionUnit,
  ADU Air Terminal Single Duct Constant Volume No Reheat 10, !- Name
  Air Terminal Single Duct Constant Volume No Reheat 10 Outlet Air Node, !- Air Distribution Unit Outlet Node Name
  AirTerminal:SingleDuct:ConstantVolume:NoReheat, !- Air Terminal Object Type
  Air Terminal Single Duct Constant Volume No Reheat 10; !- Air Terminal Name

ZoneHVAC:PackagedTerminalAirConditioner,
  ZoneHVACPackagedTerminalAirConditioner 9, !- Name
  Always On Discrete,                     !- Availability Schedule Name
  ZoneHVACPackagedTerminalAirConditioner 9 Inlet Air Node, !- Air Inlet Node Name
  ZoneHVACPackagedTerminalAirConditioner 9 Outlet Air Node, !- Air Outlet Node Name
  OutdoorAir:Mixer,                       !- Outdoor Air Mixer Object Type
  ZoneHVACPackagedTerminalAirConditioner 9 OA Mixer, !- Outdoor Air Mixer Name
  Autosize,                               !- Cooling Supply Air Flow Rate {m3/s}
  Autosize,                               !- Heating Supply Air Flow Rate {m3/s}
  Autosize,                               !- No Load Supply Air Flow Rate {m3/s}
  Yes,                                    !- No Load Supply Air Flow Rate Control Set To Low Speed
  1e-06,                                  !- Cooling Outdoor Air Flow Rate {m3/s}
  1e-06,                                  !- Heating Outdoor Air Flow Rate {m3/s}
  1e-06,                                  !- No Load Outdoor Air Flow Rate {m3/s}
  Fan:OnOff,                              !- Supply Air Fan Object Type
  FanOnOff 9,                             !- Supply Air Fan Name
  Coil:Heating:Electric,                  !- Heating Coil Object Type
  CoilHeatingElectric 10,                 !- Heating Coil Name
  Coil:Cooling:DX:SingleSpeed,            !- Cooling Coil Object Type
  CoilCoolingDXSingleSpeed_PTAC 9 24kBtu/hr 9.5EER, !- Cooling Coil Name
  DrawThrough,                            !- Fan Placement
  Always Off Discrete;                    !- Supply Air Fan Operating Mode Schedule Name

OutdoorAir:Mixer,
  ZoneHVACPackagedTerminalAirConditioner 9 OA Mixer, !- Name
  ZoneHVACPackagedTerminalAirConditioner 9 Mixed Air Node, !- Mixed Air Node Name
  ZoneHVACPackagedTerminalAirConditioner 9 OA Node, !- Outdoor Air Stream Node Name
  ZoneHVACPackagedTerminalAirConditioner 9 Relief Air Node, !- Relief Air Stream Node Name
  ZoneHVACPackagedTerminalAirConditioner 9 Inlet Air Node; !- Return Air Stream Node Name

OutdoorAir:NodeList,
  ZoneHVACPackagedTerminalAirConditioner 9 OA Node; !- Node or NodeList Name 1

Fan:OnOff,
  FanOnOff 9,                             !- Name
  Always On Discrete,                     !- Availability Schedule Name
  0.39975,                                !- Fan Total Efficiency
  331.2882503,                            !- Pressure Rise {Pa}
  Autosize,                               !- Maximum Flow Rate {m3/s}
  0.615,                                  !- Motor Efficiency
  1,                                      !- Motor In Airstream Fraction
  ZoneHVACPackagedTerminalAirConditioner 9 Heating Coil Outlet Node, !- Air Inlet Node Name
  ZoneHVACPackagedTerminalAirConditioner 9 Outlet Air Node, !- Air Outlet Node Name
  Fan On Off Power Curve 9,               !- Fan Power Ratio Function of Speed Ratio Curve Name
  Fan On Off Efficiency Curve 9,          !- Fan Efficiency Ratio Function of Speed Ratio Curve Name
  General;                                !- End-Use Subcategory

Curve:Exponent,
  Fan On Off Power Curve 9,               !- Name
  1,                                      !- Coefficient1 Constant
  0,                                      !- Coefficient2 Constant
  0,                                      !- Coefficient3 Constant
  0,                                      !- Minimum Value of x {BasedOnField A2}
  1;                                      !- Maximum Value of x {BasedOnField A2}

Curve:Cubic,
  Fan On Off Efficiency Curve 9,          !- Name
  1,                                      !- Coefficient1 Constant
  0,                                      !- Coefficient2 x
  0,                                      !- Coefficient3 x**2
  0,                                      !- Coefficient4 x**3
  0,                                      !- Minimum Value of x {BasedOnField A2}
  1;                                      !- Maximum Value of x {BasedOnField A2}

Coil:Heating:Electric,
  CoilHeatingElectric 10,                 !- Name
  Always Off Discrete,                    !- Availability Schedule Name
  1,                                      !- Efficiency
  Autosize,                               !- Nominal Capacity {W}
  ZoneHVACPackagedTerminalAirConditioner 9 Cooling Coil Outlet Node, !- Air Inlet Node Name
  ZoneHVACPackagedTerminalAirConditioner 9 Heating Coil Outlet Node; !- Air Outlet Node Name

Coil:Cooling:DX:SingleSpeed,
  CoilCoolingDXSingleSpeed_PTAC 9 24kBtu/hr 9.5EER, !- Name
  Always On Discrete,                     !- Availability Schedule Name
  Autosize,                               !- Gross Rated Total Cooling Capacity {W}
  Autosize,                               !- Gross Rated Sensible Heat Ratio
  3.30019905299558,                       !- Gross Rated Cooling COP {W/W}
  Autosize,                               !- Rated Air Flow Rate {m3/s}
  773.3,                                  !- Rated Evaporator Fan Power Per Volume Flow Rate 2017 {W/(m3/s)}
  934.4,                                  !- Rated Evaporator Fan Power Per Volume Flow Rate 2023 {W/(m3/s)}
  ZoneHVACPackagedTerminalAirConditioner 9 Mixed Air Node, !- Air Inlet Node Name
  ZoneHVACPackagedTerminalAirConditioner 9 Cooling Coil Outlet Node, !- Air Outlet Node Name
  DXCOOL-NECB2011-REF-CAPFT,              !- Total Cooling Capacity Function of Temperature Curve Name
  DXCOOL-NECB2011-REF-CAPFFLOW,           !- Total Cooling Capacity Function of Flow Fraction Curve Name
  DXCOOL-NECB2011-REF-COOLEIRFT,          !- Energy Input Ratio Function of Temperature Curve Name
  DXCOOL-NECB2011-REF-COOLEIRFFLOW,       !- Energy Input Ratio Function of Flow Fraction Curve Name
  DXCOOL-NECB2011-REF-COOLPLFFPLR,        !- Part Load Fraction Correlation Curve Name
  -25,                                    !- Minimum Outdoor Dry-Bulb Temperature for Compressor Operation {C}
  0,                                      !- Nominal Time for Condensate Removal to Begin {s}
  0,                                      !- Ratio of Initial Moisture Evaporation Rate and Steady State Latent Capacity {dimensionless}
  0,                                      !- Maximum Cycling Rate {cycles/hr}
  0,                                      !- Latent Capacity Time Constant {s}
  ,                                       !- Condenser Air Inlet Node Name
  AirCooled,                              !- Condenser Type
  0.9,                                    !- Evaporative Condenser Effectiveness {dimensionless}
  Autosize,                               !- Evaporative Condenser Air Flow Rate {m3/s}
  Autosize,                               !- Evaporative Condenser Pump Rated Power Consumption {W}
  1e-06,                                  !- Crankcase Heater Capacity {W}
  ,                                       !- Crankcase Heater Capacity Function of Temperature Curve Name
  10,                                     !- Maximum Outdoor Dry-Bulb Temperature for Crankcase Heater Operation {C}
  ,                                       !- Supply Water Storage Tank Name
  ,                                       !- Condensate Collection Water Storage Tank Name
  0,                                      !- Basin Heater Capacity {W/K}
  2;                                      !- Basin Heater Setpoint Temperature {C}

ZoneHVAC:Baseboard:Convective:Electric,
  ZoneHVACBaseboardConvectiveElectric 9,  !- Name
  Always On Discrete,                     !- Availability Schedule Name
  ,                                       !- Heating Design Capacity Method
  Autosize,                               !- Heating Design Capacity {W}
  ,                                       !- Heating Design Capacity Per Floor Area {W/m2}
  ,                                       !- Fraction of Autosized Heating Design Capacity
  1;                                      !- Efficiency

ZoneHVAC:EquipmentList,
  DU_BT=Space Function_ST=Dwelling units general_FL=Building Story 2_SCHG 12 Equipment List, !- Name
  SequentialLoad,                         !- Load Distribution Scheme
  ZoneHVAC:AirDistributionUnit,           !- Zone Equipment Object Type 1
  ADU Air Terminal Single Duct Constant Volume No Reheat 10, !- Zone Equipment Name 1
  1,                                      !- Zone Equipment Cooling Sequence 1
  1,                                      !- Zone Equipment Heating or No-Load Sequence 1
  ,                                       !- Zone Equipment Sequential Cooling Fraction Schedule Name 1
  ,                                       !- Zone Equipment Sequential Heating Fraction Schedule Name 1
  ZoneHVAC:PackagedTerminalAirConditioner, !- Zone Equipment Object Type 2
  ZoneHVACPackagedTerminalAirConditioner 9, !- Zone Equipment Name 2
  2,                                      !- Zone Equipment Cooling Sequence 2
  2,                                      !- Zone Equipment Heating or No-Load Sequence 2
  ,                                       !- Zone Equipment Sequential Cooling Fraction Schedule Name 2
  ,                                       !- Zone Equipment Sequential Heating Fraction Schedule Name 2
  ZoneHVAC:Baseboard:Convective:Electric, !- Zone Equipment Object Type 3
  ZoneHVACBaseboardConvectiveElectric 9,  !- Zone Equipment Name 3
  3,                                      !- Zone Equipment Cooling Sequence 3
  3,                                      !- Zone Equipment Heating or No-Load Sequence 3
  ,                                       !- Zone Equipment Sequential Cooling Fraction Schedule Name 3
  ;                                       !- Zone Equipment Sequential Heating Fraction Schedule Name 3

Sizing:Zone,
  DU_BT=Space Function_ST=Dwelling units general_FL=Building Story 2_SCHG 12, !- Zone or ZoneList Name
  TemperatureDifference,                  !- Zone Cooling Design Supply Air Temperature Input Method
  13,                                     !- Zone Cooling Design Supply Air Temperature {C}
  11,                                     !- Zone Cooling Design Supply Air Temperature Difference {deltaC}
  TemperatureDifference,                  !- Zone Heating Design Supply Air Temperature Input Method
  43,                                     !- Zone Heating Design Supply Air Temperature {C}
  21,                                     !- Zone Heating Design Supply Air Temperature Difference {deltaC}
  0.0085,                                 !- Zone Cooling Design Supply Air Humidity Ratio {kgWater/kgDryAir}
  0.008,                                  !- Zone Heating Design Supply Air Humidity Ratio {kgWater/kgDryAir}
  DU_BT=Space Function_ST=Dwelling units general_FL=Building Story 2_SCHG 12 DSOA Space List, !- Design Specification Outdoor Air Object Name
  1.3,                                    !- Zone Heating Sizing Factor
  1.1,                                    !- Zone Cooling Sizing Factor
  DesignDay,                              !- Cooling Design Air Flow Method
  0,                                      !- Cooling Design Air Flow Rate {m3/s}
  0.000762,                               !- Cooling Minimum Air Flow per Zone Floor Area {m3/s-m2}
  0,                                      !- Cooling Minimum Air Flow {m3/s}
  0,                                      !- Cooling Minimum Air Flow Fraction
  DesignDay,                              !- Heating Design Air Flow Method
  0,                                      !- Heating Design Air Flow Rate {m3/s}
  0.002032,                               !- Heating Maximum Air Flow per Zone Floor Area {m3/s-m2}
  0.1415762,                              !- Heating Maximum Air Flow {m3/s}
  0.3,                                    !- Heating Maximum Air Flow Fraction
  ,                                       !- Design Specification Zone Air Distribution Object Name
  No,                                     !- Account for Dedicated Outdoor Air System
  ,                                       !- Dedicated Outdoor Air System Control Strategy
  ,                                       !- Dedicated Outdoor Air Low Setpoint Temperature for Design {C}
  ,                                       !- Dedicated Outdoor Air High Setpoint Temperature for Design {C}
  Sensible Load Only No Latent Load,      !- Zone Load Sizing Method
  HumidityRatioDifference,                !- Zone Latent Cooling Design Supply Air Humidity Ratio Input Method
  ,                                       !- Zone Dehumidification Design Supply Air Humidity Ratio {kgWater/kgDryAir}
  0.005,                                  !- Zone Cooling Design Supply Air Humidity Ratio Difference {kgWater/kgDryAir}
  HumidityRatioDifference,                !- Zone Latent Heating Design Supply Air Humidity Ratio Input Method
  ,                                       !- Zone Humidification Design Supply Air Humidity Ratio {kgWater/kgDryAir}
  0.005,                                  !- Zone Humidification Design Supply Air Humidity Ratio Difference {kgWater/kgDryAir}
  ,                                       !- Zone Humidistat Dehumidification Set Point Schedule Name
  ,                                       !- Zone Humidistat Humidification Set Point Schedule Name
  Coincident;                             !- Type of Space Sum to Use

DesignSpecification:OutdoorAir:SpaceList,
  DU_BT=Space Function_ST=Dwelling units general_FL=Building Story 2_SCHG 12 DSOA Space List, !- Name
  M NE Apartment,                         !- Space Name 1
  Space Function Dwelling units general Ventilation; !- Space Design Specification Outdoor Air Object Name 1

Zone,
  DU_BT=Space Function_ST=Dwelling units general_FL=Building Story 2_SCHG 8, !- Name
  0,                                      !- Direction of Relative North {deg}
  0,                                      !- X Origin {m}
  9.29594664423115,                       !- Y Origin {m}
  3.04785135876431,                       !- Z Origin {m}
  ,                                       !- Type
  1,                                      !- Multiplier
  ,                                       !- Ceiling Height {m}
  ,                                       !- Volume {m3}
  ,                                       !- Floor Area {m2}
  ,                                       !- Zone Inside Convection Algorithm
  ,                                       !- Zone Outside Convection Algorithm
  Yes;                                    !- Part of Total Floor Area

Space,
  M NW Apartment,                         !- Name
  DU_BT=Space Function_ST=Dwelling units general_FL=Building Story 2_SCHG 8, !- Zone Name
  ,                                       !- Ceiling Height {m}
  268.97063879463,                        !- Volume {m3}
  ,                                       !- Floor Area {m2}
  Space Function Dwelling units general;  !- Space Type

BuildingSurface:Detailed,
  m Ceilin NWA,                           !- Name
  Ceiling,                                !- Surface Type
  BTAP-Int-Wall,                          !- Construction Name
  DU_BT=Space Function_ST=Dwelling units general_FL=Building Story 2_SCHG 8, !- Zone Name
  M NW Apartment,                         !- Space Name
  Adiabatic,                              !- Outside Boundary Condition
  ,                                       !- Outside Boundary Condition Object
  NoSun,                                  !- Sun Exposure
  NoWind,                                 !- Wind Exposure
  ,                                       !- View Factor to Ground
  ,                                       !- Number of Vertices
  11.581835, 0, 3.047851,                 !- X,Y,Z Vertex 1 {m}
  11.581835, 7.619628, 3.047851,          !- X,Y,Z Vertex 2 {m}
  0, 7.619628, 3.047851,                  !- X,Y,Z Vertex 3 {m}
  0, 0, 3.047851;                         !- X,Y,Z Vertex 4 {m}

BuildingSurface:Detailed,
  m EIWALL NWA,                           !- Name
  Wall,                                   !- Surface Type
  BTAP-Int-Wall,                          !- Construction Name
  DU_BT=Space Function_ST=Dwelling units general_FL=Building Story 2_SCHG 8, !- Zone Name
  M NW Apartment,                         !- Space Name
  Surface,                                !- Outside Boundary Condition
  m EIWALL NWA Reversed,                  !- Outside Boundary Condition Object
  NoSun,                                  !- Sun Exposure
  NoWind,                                 !- Wind Exposure
  ,                                       !- View Factor to Ground
  ,                                       !- Number of Vertices
  11.581835, 0, 3.047851,                 !- X,Y,Z Vertex 1 {m}
  11.581835, 0, 0,                        !- X,Y,Z Vertex 2 {m}
  11.581835, 7.619628, 0,                 !- X,Y,Z Vertex 3 {m}
  11.581835, 7.619628, 3.047851;          !- X,Y,Z Vertex 4 {m}

BuildingSurface:Detailed,
  m GFloor NWA,                           !- Name
  Floor,                                  !- Surface Type
  BTAP-Int-Wall,                          !- Construction Name
  DU_BT=Space Function_ST=Dwelling units general_FL=Building Story 2_SCHG 8, !- Zone Name
  M NW Apartment,                         !- Space Name
  Adiabatic,                              !- Outside Boundary Condition
  ,                                       !- Outside Boundary Condition Object
  NoSun,                                  !- Sun Exposure
  NoWind,                                 !- Wind Exposure
  ,                                       !- View Factor to Ground
  ,                                       !- Number of Vertices
  11.581835, 7.619628, 0,                 !- X,Y,Z Vertex 1 {m}
  11.581835, 0, 0,                        !- X,Y,Z Vertex 2 {m}
  0, 0, 0,                                !- X,Y,Z Vertex 3 {m}
  0, 7.619628, 0;                         !- X,Y,Z Vertex 4 {m}

BuildingSurface:Detailed,
  m NWall NWA,                            !- Name
  Wall,                                   !- Surface Type
  BTAP-Ext-Wall-Mass:U-0.29,              !- Construction Name
  DU_BT=Space Function_ST=Dwelling units general_FL=Building Story 2_SCHG 8, !- Zone Name
  M NW Apartment,                         !- Space Name
  Outdoors,                               !- Outside Boundary Condition
  ,                                       !- Outside Boundary Condition Object
  SunExposed,                             !- Sun Exposure
  WindExposed,                            !- Wind Exposure
  ,                                       !- View Factor to Ground
  ,                                       !- Number of Vertices
  11.581835, 7.619628, 3.047851,          !- X,Y,Z Vertex 1 {m}
  11.581835, 7.619628, 0,                 !- X,Y,Z Vertex 2 {m}
  0, 7.619628, 0,                         !- X,Y,Z Vertex 3 {m}
  0, 7.619628, 3.047851;                  !- X,Y,Z Vertex 4 {m}

FenestrationSurface:Detailed,
  m NWall NWA_FixedWindow,                !- Name
  Window,                                 !- Surface Type
  BTAP-Ext-FixedWindow:U=0.280 SHGC=0.600, !- Construction Name
  m NWall NWA,                            !- Building Surface Name
  ,                                       !- Outside Boundary Condition Object
  ,                                       !- View Factor to Ground
  ,                                       !- Frame and Divider Name
  ,                                       !- Multiplier
  ,                                       !- Number of Vertices
  11.556435, 7.619628, 1.78140567865181,  !- X,Y,Z Vertex 1 {m}
  11.556435, 7.619628, 0.762,             !- X,Y,Z Vertex 2 {m}
  0.0254000000000012, 7.619628, 0.762,    !- X,Y,Z Vertex 3 {m}
  0.0254000000000012, 7.619628, 1.78140567865181; !- X,Y,Z Vertex 4 {m}

BuildingSurface:Detailed,
  m SIWall NWA,                           !- Name
  Wall,                                   !- Surface Type
  BTAP-Int-Wall,                          !- Construction Name
  DU_BT=Space Function_ST=Dwelling units general_FL=Building Story 2_SCHG 8, !- Zone Name
  M NW Apartment,                         !- Space Name
  Surface,                                !- Outside Boundary Condition
  m SIWall NWA Reversed,                  !- Outside Boundary Condition Object
  NoSun,                                  !- Sun Exposure
  NoWind,                                 !- Wind Exposure
  ,                                       !- View Factor to Ground
  ,                                       !- Number of Vertices
  0, 0, 3.047851,                         !- X,Y,Z Vertex 1 {m}
  0, 0, 0,                                !- X,Y,Z Vertex 2 {m}
  11.581835, 0, 0,                        !- X,Y,Z Vertex 3 {m}
  11.581835, 0, 3.047851;                 !- X,Y,Z Vertex 4 {m}

BuildingSurface:Detailed,
  m WWall NWA,                            !- Name
  Wall,                                   !- Surface Type
  BTAP-Ext-Wall-Mass:U-0.29,              !- Construction Name
  DU_BT=Space Function_ST=Dwelling units general_FL=Building Story 2_SCHG 8, !- Zone Name
  M NW Apartment,                         !- Space Name
  Outdoors,                               !- Outside Boundary Condition
  ,                                       !- Outside Boundary Condition Object
  SunExposed,                             !- Sun Exposure
  WindExposed,                            !- Wind Exposure
  ,                                       !- View Factor to Ground
  ,                                       !- Number of Vertices
  0, 7.619628, 3.047851,                  !- X,Y,Z Vertex 1 {m}
  0, 7.619628, 0,                         !- X,Y,Z Vertex 2 {m}
  0, 0, 0,                                !- X,Y,Z Vertex 3 {m}
  0, 0, 3.047851;                         !- X,Y,Z Vertex 4 {m}

FenestrationSurface:Detailed,
  m WWall NWA_FixedWindow,                !- Name
  Window,                                 !- Surface Type
  BTAP-Ext-FixedWindow:U=0.280 SHGC=0.600, !- Construction Name
  m WWall NWA,                            !- Building Surface Name
  ,                                       !- Outside Boundary Condition Object
  ,                                       !- View Factor to Ground
  ,                                       !- Frame and Divider Name
  ,                                       !- Multiplier
  ,                                       !- Number of Vertices
  0, 7.594228, 1.78374635793937,          !- X,Y,Z Vertex 1 {m}
  0, 7.594228, 0.762,                     !- X,Y,Z Vertex 2 {m}
  0, 0.0253999999999994, 0.762,           !- X,Y,Z Vertex 3 {m}
  0, 0.0253999999999994, 1.78374635793937; !- X,Y,Z Vertex 4 {m}

ZoneInfiltration:DesignFlowRate,
  M NW Apartment Infiltration,            !- Name
  M NW Apartment,                         !- Zone or ZoneList or Space or SpaceList Name
  Always On Discrete,                     !- Schedule Name
  Flow/ExteriorArea,                      !- Design Flow Rate Calculation Method
  ,                                       !- Design Flow Rate {m3/s}
  ,                                       !- Flow Rate per Floor Area {m3/s-m2}
  0.00447586595596712,                    !- Flow Rate per Exterior Surface Area {m3/s-m2}
  ,                                       !- Air Changes per Hour {1/hr}
  0,                                      !- Constant Term Coefficient
  0,                                      !- Temperature Term Coefficient
  0.224,                                  !- Velocity Term Coefficient
  0;                                      !- Velocity Squared Term Coefficient

ZoneControl:Thermostat,
  DU_BT=Space Function_ST=Dwelling units general_FL=Building Story 2_SCHG 8 Thermostat, !- Name
  DU_BT=Space Function_ST=Dwelling units general_FL=Building Story 2_SCHG 8, !- Zone or ZoneList Name
  DU_BT=Space Function_ST=Dwelling units general_FL=Building Story 2_SCHG 8 Thermostat Schedule, !- Control Type Schedule Name
  ThermostatSetpoint:DualSetpoint,        !- Control 1 Object Type
  Space Function Dwelling units general Thermostat 43, !- Control 1 Name
  ,                                       !- Control 2 Object Type
  ,                                       !- Control 2 Name
  ,                                       !- Control 3 Object Type
  ,                                       !- Control 3 Name
  ,                                       !- Control 4 Object Type
  ,                                       !- Control 4 Name
  0;                                      !- Temperature Difference Between Cutout And Setpoint {deltaC}

Schedule:Compact,
  DU_BT=Space Function_ST=Dwelling units general_FL=Building Story 2_SCHG 8 Thermostat Schedule, !- Name
  DU_BT=Space Function_ST=Dwelling units general_FL=Building Story 2_SCHG 8 Thermostat Schedule Type Limits, !- Schedule Type Limits Name
  Through: 12/31,                         !- Field 1
  For: AllDays,                           !- Field 2
  Until: 24:00,                           !- Field 3
  4;                                      !- Field 4

ScheduleTypeLimits,
  DU_BT=Space Function_ST=Dwelling units general_FL=Building Story 2_SCHG 8 Thermostat Schedule Type Limits, !- Name
  0,                                      !- Lower Limit Value {BasedOnField A3}
  4,                                      !- Upper Limit Value {BasedOnField A3}
  DISCRETE;                               !- Numeric Type

ThermostatSetpoint:DualSetpoint,
  Space Function Dwelling units general Thermostat 43, !- Name
  NECB-G-Thermostat Setpoint-Heating,     !- Heating Setpoint Temperature Schedule Name
  NECB-G-Thermostat Setpoint-Cooling;     !- Cooling Setpoint Temperature Schedule Name

ZoneHVAC:EquipmentConnections,
  DU_BT=Space Function_ST=Dwelling units general_FL=Building Story 2_SCHG 8, !- Zone Name
  DU_BT=Space Function_ST=Dwelling units general_FL=Building Story 2_SCHG 8 Equipment List, !- Zone Conditioning Equipment List Name
  DU_BT=Space Function_ST=Dwelling units general_FL=Building Story 2_SCHG 8 Inlet Node List, !- Zone Air Inlet Node or NodeList Name
  DU_BT=Space Function_ST=Dwelling units general_FL=Building Story 2_SCHG 8 Exhaust Node List, !- Zone Air Exhaust Node or NodeList Name
  DU_BT=Space Function_ST=Dwelling units general_FL=Building Story 2_SCHG 8 Zone Air Node, !- Zone Air Node Name
  DU_BT=Space Function_ST=Dwelling units general_FL=Building Story 2_SCHG 8 Return Node List; !- Zone Return Air Node or NodeList Name

NodeList,
  DU_BT=Space Function_ST=Dwelling units general_FL=Building Story 2_SCHG 8 Inlet Node List, !- Name
  Air Terminal Single Duct Constant Volume No Reheat 11 Outlet Air Node, !- Node Name 1
  ZoneHVACPackagedTerminalAirConditioner 10 Outlet Air Node; !- Node Name 2

NodeList,
  DU_BT=Space Function_ST=Dwelling units general_FL=Building Story 2_SCHG 8 Exhaust Node List, !- Name
  ZoneHVACPackagedTerminalAirConditioner 10 Inlet Air Node; !- Node Name 1

NodeList,
  DU_BT=Space Function_ST=Dwelling units general_FL=Building Story 2_SCHG 8 Return Node List, !- Name
  DU_BT=Space Function_ST=Dwelling units general_FL=Building Story 2_SCHG 8 Return Air Node; !- Node Name 1

AirTerminal:SingleDuct:ConstantVolume:NoReheat,
  Air Terminal Single Duct Constant Volume No Reheat 11, !- Name
  Always On Discrete,                     !- Availability Schedule Name
  Air Terminal Single Duct Constant Volume No Reheat 11 Inlet Air Node, !- Air Inlet Node Name
  Air Terminal Single Duct Constant Volume No Reheat 11 Outlet Air Node, !- Air Outlet Node Name
  AutoSize;                               !- Maximum Air Flow Rate {m3/s}

ZoneHVAC:AirDistributionUnit,
  ADU Air Terminal Single Duct Constant Volume No Reheat 11, !- Name
  Air Terminal Single Duct Constant Volume No Reheat 11 Outlet Air Node, !- Air Distribution Unit Outlet Node Name
  AirTerminal:SingleDuct:ConstantVolume:NoReheat, !- Air Terminal Object Type
  Air Terminal Single Duct Constant Volume No Reheat 11; !- Air Terminal Name

ZoneHVAC:PackagedTerminalAirConditioner,
  ZoneHVACPackagedTerminalAirConditioner 10, !- Name
  Always On Discrete,                     !- Availability Schedule Name
  ZoneHVACPackagedTerminalAirConditioner 10 Inlet Air Node, !- Air Inlet Node Name
  ZoneHVACPackagedTerminalAirConditioner 10 Outlet Air Node, !- Air Outlet Node Name
  OutdoorAir:Mixer,                       !- Outdoor Air Mixer Object Type
  ZoneHVACPackagedTerminalAirConditioner 10 OA Mixer, !- Outdoor Air Mixer Name
  Autosize,                               !- Cooling Supply Air Flow Rate {m3/s}
  Autosize,                               !- Heating Supply Air Flow Rate {m3/s}
  Autosize,                               !- No Load Supply Air Flow Rate {m3/s}
  Yes,                                    !- No Load Supply Air Flow Rate Control Set To Low Speed
  1e-06,                                  !- Cooling Outdoor Air Flow Rate {m3/s}
  1e-06,                                  !- Heating Outdoor Air Flow Rate {m3/s}
  1e-06,                                  !- No Load Outdoor Air Flow Rate {m3/s}
  Fan:OnOff,                              !- Supply Air Fan Object Type
  FanOnOff 10,                            !- Supply Air Fan Name
  Coil:Heating:Electric,                  !- Heating Coil Object Type
  CoilHeatingElectric 11,                 !- Heating Coil Name
  Coil:Cooling:DX:SingleSpeed,            !- Cooling Coil Object Type
  CoilCoolingDXSingleSpeed_PTAC 10 24kBtu/hr 9.5EER, !- Cooling Coil Name
  DrawThrough,                            !- Fan Placement
  Always Off Discrete;                    !- Supply Air Fan Operating Mode Schedule Name

OutdoorAir:Mixer,
  ZoneHVACPackagedTerminalAirConditioner 10 OA Mixer, !- Name
  ZoneHVACPackagedTerminalAirConditioner 10 Mixed Air Node, !- Mixed Air Node Name
  ZoneHVACPackagedTerminalAirConditioner 10 OA Node, !- Outdoor Air Stream Node Name
  ZoneHVACPackagedTerminalAirConditioner 10 Relief Air Node, !- Relief Air Stream Node Name
  ZoneHVACPackagedTerminalAirConditioner 10 Inlet Air Node; !- Return Air Stream Node Name

OutdoorAir:NodeList,
  ZoneHVACPackagedTerminalAirConditioner 10 OA Node; !- Node or NodeList Name 1

Fan:OnOff,
  FanOnOff 10,                            !- Name
  Always On Discrete,                     !- Availability Schedule Name
  0.39975,                                !- Fan Total Efficiency
  331.2882503,                            !- Pressure Rise {Pa}
  Autosize,                               !- Maximum Flow Rate {m3/s}
  0.615,                                  !- Motor Efficiency
  1,                                      !- Motor In Airstream Fraction
  ZoneHVACPackagedTerminalAirConditioner 10 Heating Coil Outlet Node, !- Air Inlet Node Name
  ZoneHVACPackagedTerminalAirConditioner 10 Outlet Air Node, !- Air Outlet Node Name
  Fan On Off Power Curve 10,              !- Fan Power Ratio Function of Speed Ratio Curve Name
  Fan On Off Efficiency Curve 10,         !- Fan Efficiency Ratio Function of Speed Ratio Curve Name
  General;                                !- End-Use Subcategory

Curve:Exponent,
  Fan On Off Power Curve 10,              !- Name
  1,                                      !- Coefficient1 Constant
  0,                                      !- Coefficient2 Constant
  0,                                      !- Coefficient3 Constant
  0,                                      !- Minimum Value of x {BasedOnField A2}
  1;                                      !- Maximum Value of x {BasedOnField A2}

Curve:Cubic,
  Fan On Off Efficiency Curve 10,         !- Name
  1,                                      !- Coefficient1 Constant
  0,                                      !- Coefficient2 x
  0,                                      !- Coefficient3 x**2
  0,                                      !- Coefficient4 x**3
  0,                                      !- Minimum Value of x {BasedOnField A2}
  1;                                      !- Maximum Value of x {BasedOnField A2}

Coil:Heating:Electric,
  CoilHeatingElectric 11,                 !- Name
  Always Off Discrete,                    !- Availability Schedule Name
  1,                                      !- Efficiency
  Autosize,                               !- Nominal Capacity {W}
  ZoneHVACPackagedTerminalAirConditioner 10 Cooling Coil Outlet Node, !- Air Inlet Node Name
  ZoneHVACPackagedTerminalAirConditioner 10 Heating Coil Outlet Node; !- Air Outlet Node Name

Coil:Cooling:DX:SingleSpeed,
  CoilCoolingDXSingleSpeed_PTAC 10 24kBtu/hr 9.5EER, !- Name
  Always On Discrete,                     !- Availability Schedule Name
  Autosize,                               !- Gross Rated Total Cooling Capacity {W}
  Autosize,                               !- Gross Rated Sensible Heat Ratio
  3.30019905299558,                       !- Gross Rated Cooling COP {W/W}
  Autosize,                               !- Rated Air Flow Rate {m3/s}
  773.3,                                  !- Rated Evaporator Fan Power Per Volume Flow Rate 2017 {W/(m3/s)}
  934.4,                                  !- Rated Evaporator Fan Power Per Volume Flow Rate 2023 {W/(m3/s)}
  ZoneHVACPackagedTerminalAirConditioner 10 Mixed Air Node, !- Air Inlet Node Name
  ZoneHVACPackagedTerminalAirConditioner 10 Cooling Coil Outlet Node, !- Air Outlet Node Name
  DXCOOL-NECB2011-REF-CAPFT,              !- Total Cooling Capacity Function of Temperature Curve Name
  DXCOOL-NECB2011-REF-CAPFFLOW,           !- Total Cooling Capacity Function of Flow Fraction Curve Name
  DXCOOL-NECB2011-REF-COOLEIRFT,          !- Energy Input Ratio Function of Temperature Curve Name
  DXCOOL-NECB2011-REF-COOLEIRFFLOW,       !- Energy Input Ratio Function of Flow Fraction Curve Name
  DXCOOL-NECB2011-REF-COOLPLFFPLR,        !- Part Load Fraction Correlation Curve Name
  -25,                                    !- Minimum Outdoor Dry-Bulb Temperature for Compressor Operation {C}
  0,                                      !- Nominal Time for Condensate Removal to Begin {s}
  0,                                      !- Ratio of Initial Moisture Evaporation Rate and Steady State Latent Capacity {dimensionless}
  0,                                      !- Maximum Cycling Rate {cycles/hr}
  0,                                      !- Latent Capacity Time Constant {s}
  ,                                       !- Condenser Air Inlet Node Name
  AirCooled,                              !- Condenser Type
  0.9,                                    !- Evaporative Condenser Effectiveness {dimensionless}
  Autosize,                               !- Evaporative Condenser Air Flow Rate {m3/s}
  Autosize,                               !- Evaporative Condenser Pump Rated Power Consumption {W}
  1e-06,                                  !- Crankcase Heater Capacity {W}
  ,                                       !- Crankcase Heater Capacity Function of Temperature Curve Name
  10,                                     !- Maximum Outdoor Dry-Bulb Temperature for Crankcase Heater Operation {C}
  ,                                       !- Supply Water Storage Tank Name
  ,                                       !- Condensate Collection Water Storage Tank Name
  0,                                      !- Basin Heater Capacity {W/K}
  2;                                      !- Basin Heater Setpoint Temperature {C}

ZoneHVAC:Baseboard:Convective:Electric,
  ZoneHVACBaseboardConvectiveElectric 10, !- Name
  Always On Discrete,                     !- Availability Schedule Name
  ,                                       !- Heating Design Capacity Method
  Autosize,                               !- Heating Design Capacity {W}
  ,                                       !- Heating Design Capacity Per Floor Area {W/m2}
  ,                                       !- Fraction of Autosized Heating Design Capacity
  1;                                      !- Efficiency

ZoneHVAC:EquipmentList,
  DU_BT=Space Function_ST=Dwelling units general_FL=Building Story 2_SCHG 8 Equipment List, !- Name
  SequentialLoad,                         !- Load Distribution Scheme
  ZoneHVAC:AirDistributionUnit,           !- Zone Equipment Object Type 1
  ADU Air Terminal Single Duct Constant Volume No Reheat 11, !- Zone Equipment Name 1
  1,                                      !- Zone Equipment Cooling Sequence 1
  1,                                      !- Zone Equipment Heating or No-Load Sequence 1
  ,                                       !- Zone Equipment Sequential Cooling Fraction Schedule Name 1
  ,                                       !- Zone Equipment Sequential Heating Fraction Schedule Name 1
  ZoneHVAC:PackagedTerminalAirConditioner, !- Zone Equipment Object Type 2
  ZoneHVACPackagedTerminalAirConditioner 10, !- Zone Equipment Name 2
  2,                                      !- Zone Equipment Cooling Sequence 2
  2,                                      !- Zone Equipment Heating or No-Load Sequence 2
  ,                                       !- Zone Equipment Sequential Cooling Fraction Schedule Name 2
  ,                                       !- Zone Equipment Sequential Heating Fraction Schedule Name 2
  ZoneHVAC:Baseboard:Convective:Electric, !- Zone Equipment Object Type 3
  ZoneHVACBaseboardConvectiveElectric 10, !- Zone Equipment Name 3
  3,                                      !- Zone Equipment Cooling Sequence 3
  3,                                      !- Zone Equipment Heating or No-Load Sequence 3
  ,                                       !- Zone Equipment Sequential Cooling Fraction Schedule Name 3
  ;                                       !- Zone Equipment Sequential Heating Fraction Schedule Name 3

Sizing:Zone,
  DU_BT=Space Function_ST=Dwelling units general_FL=Building Story 2_SCHG 8, !- Zone or ZoneList Name
  TemperatureDifference,                  !- Zone Cooling Design Supply Air Temperature Input Method
  13,                                     !- Zone Cooling Design Supply Air Temperature {C}
  11,                                     !- Zone Cooling Design Supply Air Temperature Difference {deltaC}
  TemperatureDifference,                  !- Zone Heating Design Supply Air Temperature Input Method
  43,                                     !- Zone Heating Design Supply Air Temperature {C}
  21,                                     !- Zone Heating Design Supply Air Temperature Difference {deltaC}
  0.0085,                                 !- Zone Cooling Design Supply Air Humidity Ratio {kgWater/kgDryAir}
  0.008,                                  !- Zone Heating Design Supply Air Humidity Ratio {kgWater/kgDryAir}
  DU_BT=Space Function_ST=Dwelling units general_FL=Building Story 2_SCHG 8 DSOA Space List, !- Design Specification Outdoor Air Object Name
  1.3,                                    !- Zone Heating Sizing Factor
  1.1,                                    !- Zone Cooling Sizing Factor
  DesignDay,                              !- Cooling Design Air Flow Method
  0,                                      !- Cooling Design Air Flow Rate {m3/s}
  0.000762,                               !- Cooling Minimum Air Flow per Zone Floor Area {m3/s-m2}
  0,                                      !- Cooling Minimum Air Flow {m3/s}
  0,                                      !- Cooling Minimum Air Flow Fraction
  DesignDay,                              !- Heating Design Air Flow Method
  0,                                      !- Heating Design Air Flow Rate {m3/s}
  0.002032,                               !- Heating Maximum Air Flow per Zone Floor Area {m3/s-m2}
  0.1415762,                              !- Heating Maximum Air Flow {m3/s}
  0.3,                                    !- Heating Maximum Air Flow Fraction
  ,                                       !- Design Specification Zone Air Distribution Object Name
  No,                                     !- Account for Dedicated Outdoor Air System
  ,                                       !- Dedicated Outdoor Air System Control Strategy
  ,                                       !- Dedicated Outdoor Air Low Setpoint Temperature for Design {C}
  ,                                       !- Dedicated Outdoor Air High Setpoint Temperature for Design {C}
  Sensible Load Only No Latent Load,      !- Zone Load Sizing Method
  HumidityRatioDifference,                !- Zone Latent Cooling Design Supply Air Humidity Ratio Input Method
  ,                                       !- Zone Dehumidification Design Supply Air Humidity Ratio {kgWater/kgDryAir}
  0.005,                                  !- Zone Cooling Design Supply Air Humidity Ratio Difference {kgWater/kgDryAir}
  HumidityRatioDifference,                !- Zone Latent Heating Design Supply Air Humidity Ratio Input Method
  ,                                       !- Zone Humidification Design Supply Air Humidity Ratio {kgWater/kgDryAir}
  0.005,                                  !- Zone Humidification Design Supply Air Humidity Ratio Difference {kgWater/kgDryAir}
  ,                                       !- Zone Humidistat Dehumidification Set Point Schedule Name
  ,                                       !- Zone Humidistat Humidification Set Point Schedule Name
  Coincident;                             !- Type of Space Sum to Use

DesignSpecification:OutdoorAir:SpaceList,
  DU_BT=Space Function_ST=Dwelling units general_FL=Building Story 2_SCHG 8 DSOA Space List, !- Name
  M NW Apartment,                         !- Space Name 1
  Space Function Dwelling units general Ventilation; !- Space Design Specification Outdoor Air Object Name 1

Zone,
  DU_BT=Space Function_ST=Dwelling units general_FL=Building Story 2_SCHG 9, !- Name
  0,                                      !- Direction of Relative North {deg}
  23.1636701633044,                       !- X Origin {m}
  0,                                      !- Y Origin {m}
  3.04785135876431,                       !- Z Origin {m}
  ,                                       !- Type
  1,                                      !- Multiplier
  ,                                       !- Ceiling Height {m}
  ,                                       !- Volume {m3}
  ,                                       !- Floor Area {m2}
  ,                                       !- Zone Inside Convection Algorithm
  ,                                       !- Zone Outside Convection Algorithm
  Yes;                                    !- Part of Total Floor Area

Space,
  M SE Apartment,                         !- Name
  DU_BT=Space Function_ST=Dwelling units general_FL=Building Story 2_SCHG 9, !- Zone Name
  ,                                       !- Ceiling Height {m}
  268.970650612359,                       !- Volume {m3}
  ,                                       !- Floor Area {m2}
  Space Function Dwelling units general;  !- Space Type

BuildingSurface:Detailed,
  m Ceilin SEA,                           !- Name
  Ceiling,                                !- Surface Type
  BTAP-Int-Wall,                          !- Construction Name
  DU_BT=Space Function_ST=Dwelling units general_FL=Building Story 2_SCHG 9, !- Zone Name
  M SE Apartment,                         !- Space Name
  Adiabatic,                              !- Outside Boundary Condition
  ,                                       !- Outside Boundary Condition Object
  NoSun,                                  !- Sun Exposure
  NoWind,                                 !- Wind Exposure
  ,                                       !- View Factor to Ground
  ,                                       !- Number of Vertices
  11.581835, 0, 3.047851,                 !- X,Y,Z Vertex 1 {m}
  11.581835, 7.619628, 3.047851,          !- X,Y,Z Vertex 2 {m}
  0, 7.619628, 3.047851,                  !- X,Y,Z Vertex 3 {m}
  0, 0, 3.047851;                         !- X,Y,Z Vertex 4 {m}

BuildingSurface:Detailed,
  m EIWALL S2A Reversed,                  !- Name
  Wall,                                   !- Surface Type
  BTAP-Int-Wall,                          !- Construction Name
  DU_BT=Space Function_ST=Dwelling units general_FL=Building Story 2_SCHG 9, !- Zone Name
  M SE Apartment,                         !- Space Name
  Surface,                                !- Outside Boundary Condition
  m EIWALL S1A,                           !- Outside Boundary Condition Object
  NoSun,                                  !- Sun Exposure
  NoWind,                                 !- Wind Exposure
  ,                                       !- View Factor to Ground
  ,                                       !- Number of Vertices
  -1.63304301636913e-07, 7.619628, 3.047851, !- X,Y,Z Vertex 1 {m}
  -1.63304301636913e-07, 7.619628, 0,     !- X,Y,Z Vertex 2 {m}
  0, 0, 0,                                !- X,Y,Z Vertex 3 {m}
  0, 0, 3.047851;                         !- X,Y,Z Vertex 4 {m}

BuildingSurface:Detailed,
  m EWall SEA,                            !- Name
  Wall,                                   !- Surface Type
  BTAP-Ext-Wall-Mass:U-0.29,              !- Construction Name
  DU_BT=Space Function_ST=Dwelling units general_FL=Building Story 2_SCHG 9, !- Zone Name
  M SE Apartment,                         !- Space Name
  Outdoors,                               !- Outside Boundary Condition
  ,                                       !- Outside Boundary Condition Object
  SunExposed,                             !- Sun Exposure
  WindExposed,                            !- Wind Exposure
  ,                                       !- View Factor to Ground
  ,                                       !- Number of Vertices
  11.581835, 0, 3.047851,                 !- X,Y,Z Vertex 1 {m}
  11.581835, 0, 0,                        !- X,Y,Z Vertex 2 {m}
  11.581835, 7.619628, 0,                 !- X,Y,Z Vertex 3 {m}
  11.581835, 7.619628, 3.047851;          !- X,Y,Z Vertex 4 {m}

FenestrationSurface:Detailed,
  m EWall SEA_FixedWindow,                !- Name
  Window,                                 !- Surface Type
  BTAP-Ext-FixedWindow:U=0.280 SHGC=0.600, !- Construction Name
  m EWall SEA,                            !- Building Surface Name
  ,                                       !- Outside Boundary Condition Object
  ,                                       !- View Factor to Ground
  ,                                       !- Frame and Divider Name
  ,                                       !- Multiplier
  ,                                       !- Number of Vertices
  11.581835, 0.0254, 1.78374635793937,    !- X,Y,Z Vertex 1 {m}
  11.581835, 0.0254, 0.762,               !- X,Y,Z Vertex 2 {m}
  11.581835, 7.594228, 0.762,             !- X,Y,Z Vertex 3 {m}
  11.581835, 7.594228, 1.78374635793937;  !- X,Y,Z Vertex 4 {m}

BuildingSurface:Detailed,
  m GFloor SEA,                           !- Name
  Floor,                                  !- Surface Type
  BTAP-Int-Wall,                          !- Construction Name
  DU_BT=Space Function_ST=Dwelling units general_FL=Building Story 2_SCHG 9, !- Zone Name
  M SE Apartment,                         !- Space Name
  Adiabatic,                              !- Outside Boundary Condition
  ,                                       !- Outside Boundary Condition Object
  NoSun,                                  !- Sun Exposure
  NoWind,                                 !- Wind Exposure
  ,                                       !- View Factor to Ground
  ,                                       !- Number of Vertices
  11.581835, 7.619628, -3.5876430981574e-07, !- X,Y,Z Vertex 1 {m}
  11.581835, 0, -3.5876430981574e-07,     !- X,Y,Z Vertex 2 {m}
  -1.6330430341327e-07, 0, -3.5876430981574e-07, !- X,Y,Z Vertex 3 {m}
  -1.6330430341327e-07, 7.619628, -3.5876430981574e-07; !- X,Y,Z Vertex 4 {m}

BuildingSurface:Detailed,
  m NIWall SEA,                           !- Name
  Wall,                                   !- Surface Type
  BTAP-Int-Wall,                          !- Construction Name
  DU_BT=Space Function_ST=Dwelling units general_FL=Building Story 2_SCHG 9, !- Zone Name
  M SE Apartment,                         !- Space Name
  Surface,                                !- Outside Boundary Condition
  m NIWall SEA Reversed,                  !- Outside Boundary Condition Object
  NoSun,                                  !- Sun Exposure
  NoWind,                                 !- Wind Exposure
  ,                                       !- View Factor to Ground
  ,                                       !- Number of Vertices
  11.581835, 7.619628, 3.047851,          !- X,Y,Z Vertex 1 {m}
  11.581835, 7.619628, 0,                 !- X,Y,Z Vertex 2 {m}
  -1.63304301636913e-07, 7.619628, 0,     !- X,Y,Z Vertex 3 {m}
  -1.63304301636913e-07, 7.619628, 3.047851; !- X,Y,Z Vertex 4 {m}

BuildingSurface:Detailed,
  m SWall SEA,                            !- Name
  Wall,                                   !- Surface Type
  BTAP-Ext-Wall-Mass:U-0.29,              !- Construction Name
  DU_BT=Space Function_ST=Dwelling units general_FL=Building Story 2_SCHG 9, !- Zone Name
  M SE Apartment,                         !- Space Name
  Outdoors,                               !- Outside Boundary Condition
  ,                                       !- Outside Boundary Condition Object
  SunExposed,                             !- Sun Exposure
  WindExposed,                            !- Wind Exposure
  ,                                       !- View Factor to Ground
  ,                                       !- Number of Vertices
  0, 0, 3.047851,                         !- X,Y,Z Vertex 1 {m}
  0, 0, 0,                                !- X,Y,Z Vertex 2 {m}
  11.581835, 0, 0,                        !- X,Y,Z Vertex 3 {m}
  11.581835, 0, 3.047851;                 !- X,Y,Z Vertex 4 {m}

FenestrationSurface:Detailed,
  m SWall SEA_FixedWindow,                !- Name
  Window,                                 !- Surface Type
  BTAP-Ext-FixedWindow:U=0.280 SHGC=0.600, !- Construction Name
  m SWall SEA,                            !- Building Surface Name
  ,                                       !- Outside Boundary Condition Object
  ,                                       !- View Factor to Ground
  ,                                       !- Frame and Divider Name
  ,                                       !- Multiplier
  ,                                       !- Number of Vertices
  0.0254, 0, 1.78140567865181,            !- X,Y,Z Vertex 1 {m}
  0.0254, 0, 0.762,                       !- X,Y,Z Vertex 2 {m}
  11.556435, 0, 0.762,                    !- X,Y,Z Vertex 3 {m}
  11.556435, 0, 1.78140567865181;         !- X,Y,Z Vertex 4 {m}

ZoneInfiltration:DesignFlowRate,
  M SE Apartment Infiltration,            !- Name
  M SE Apartment,                         !- Zone or ZoneList or Space or SpaceList Name
  Always On Discrete,                     !- Schedule Name
  Flow/ExteriorArea,                      !- Design Flow Rate Calculation Method
  ,                                       !- Design Flow Rate {m3/s}
  ,                                       !- Flow Rate per Floor Area {m3/s-m2}
  0.00447586595596712,                    !- Flow Rate per Exterior Surface Area {m3/s-m2}
  ,                                       !- Air Changes per Hour {1/hr}
  0,                                      !- Constant Term Coefficient
  0,                                      !- Temperature Term Coefficient
  0.224,                                  !- Velocity Term Coefficient
  0;                                      !- Velocity Squared Term Coefficient

ZoneControl:Thermostat,
  DU_BT=Space Function_ST=Dwelling units general_FL=Building Story 2_SCHG 9 Thermostat, !- Name
  DU_BT=Space Function_ST=Dwelling units general_FL=Building Story 2_SCHG 9, !- Zone or ZoneList Name
  DU_BT=Space Function_ST=Dwelling units general_FL=Building Story 2_SCHG 9 Thermostat Schedule, !- Control Type Schedule Name
  ThermostatSetpoint:DualSetpoint,        !- Control 1 Object Type
  Space Function Dwelling units general Thermostat 47, !- Control 1 Name
  ,                                       !- Control 2 Object Type
  ,                                       !- Control 2 Name
  ,                                       !- Control 3 Object Type
  ,                                       !- Control 3 Name
  ,                                       !- Control 4 Object Type
  ,                                       !- Control 4 Name
  0;                                      !- Temperature Difference Between Cutout And Setpoint {deltaC}

Schedule:Compact,
  DU_BT=Space Function_ST=Dwelling units general_FL=Building Story 2_SCHG 9 Thermostat Schedule, !- Name
  DU_BT=Space Function_ST=Dwelling units general_FL=Building Story 2_SCHG 9 Thermostat Schedule Type Limits, !- Schedule Type Limits Name
  Through: 12/31,                         !- Field 1
  For: AllDays,                           !- Field 2
  Until: 24:00,                           !- Field 3
  4;                                      !- Field 4

ScheduleTypeLimits,
  DU_BT=Space Function_ST=Dwelling units general_FL=Building Story 2_SCHG 9 Thermostat Schedule Type Limits, !- Name
  0,                                      !- Lower Limit Value {BasedOnField A3}
  4,                                      !- Upper Limit Value {BasedOnField A3}
  DISCRETE;                               !- Numeric Type

ThermostatSetpoint:DualSetpoint,
  Space Function Dwelling units general Thermostat 47, !- Name
  NECB-G-Thermostat Setpoint-Heating,     !- Heating Setpoint Temperature Schedule Name
  NECB-G-Thermostat Setpoint-Cooling;     !- Cooling Setpoint Temperature Schedule Name

ZoneHVAC:EquipmentConnections,
  DU_BT=Space Function_ST=Dwelling units general_FL=Building Story 2_SCHG 9, !- Zone Name
  DU_BT=Space Function_ST=Dwelling units general_FL=Building Story 2_SCHG 9 Equipment List, !- Zone Conditioning Equipment List Name
  DU_BT=Space Function_ST=Dwelling units general_FL=Building Story 2_SCHG 9 Inlet Node List, !- Zone Air Inlet Node or NodeList Name
  DU_BT=Space Function_ST=Dwelling units general_FL=Building Story 2_SCHG 9 Exhaust Node List, !- Zone Air Exhaust Node or NodeList Name
  DU_BT=Space Function_ST=Dwelling units general_FL=Building Story 2_SCHG 9 Zone Air Node, !- Zone Air Node Name
  DU_BT=Space Function_ST=Dwelling units general_FL=Building Story 2_SCHG 9 Return Node List; !- Zone Return Air Node or NodeList Name

NodeList,
  DU_BT=Space Function_ST=Dwelling units general_FL=Building Story 2_SCHG 9 Inlet Node List, !- Name
  Air Terminal Single Duct Constant Volume No Reheat 12 Outlet Air Node, !- Node Name 1
  ZoneHVACPackagedTerminalAirConditioner 11 Outlet Air Node; !- Node Name 2

NodeList,
  DU_BT=Space Function_ST=Dwelling units general_FL=Building Story 2_SCHG 9 Exhaust Node List, !- Name
  ZoneHVACPackagedTerminalAirConditioner 11 Inlet Air Node; !- Node Name 1

NodeList,
  DU_BT=Space Function_ST=Dwelling units general_FL=Building Story 2_SCHG 9 Return Node List, !- Name
  DU_BT=Space Function_ST=Dwelling units general_FL=Building Story 2_SCHG 9 Return Air Node; !- Node Name 1

AirTerminal:SingleDuct:ConstantVolume:NoReheat,
  Air Terminal Single Duct Constant Volume No Reheat 12, !- Name
  Always On Discrete,                     !- Availability Schedule Name
  Air Terminal Single Duct Constant Volume No Reheat 12 Inlet Air Node, !- Air Inlet Node Name
  Air Terminal Single Duct Constant Volume No Reheat 12 Outlet Air Node, !- Air Outlet Node Name
  AutoSize;                               !- Maximum Air Flow Rate {m3/s}

ZoneHVAC:AirDistributionUnit,
  ADU Air Terminal Single Duct Constant Volume No Reheat 12, !- Name
  Air Terminal Single Duct Constant Volume No Reheat 12 Outlet Air Node, !- Air Distribution Unit Outlet Node Name
  AirTerminal:SingleDuct:ConstantVolume:NoReheat, !- Air Terminal Object Type
  Air Terminal Single Duct Constant Volume No Reheat 12; !- Air Terminal Name

ZoneHVAC:PackagedTerminalAirConditioner,
  ZoneHVACPackagedTerminalAirConditioner 11, !- Name
  Always On Discrete,                     !- Availability Schedule Name
  ZoneHVACPackagedTerminalAirConditioner 11 Inlet Air Node, !- Air Inlet Node Name
  ZoneHVACPackagedTerminalAirConditioner 11 Outlet Air Node, !- Air Outlet Node Name
  OutdoorAir:Mixer,                       !- Outdoor Air Mixer Object Type
  ZoneHVACPackagedTerminalAirConditioner 11 OA Mixer, !- Outdoor Air Mixer Name
  Autosize,                               !- Cooling Supply Air Flow Rate {m3/s}
  Autosize,                               !- Heating Supply Air Flow Rate {m3/s}
  Autosize,                               !- No Load Supply Air Flow Rate {m3/s}
  Yes,                                    !- No Load Supply Air Flow Rate Control Set To Low Speed
  1e-06,                                  !- Cooling Outdoor Air Flow Rate {m3/s}
  1e-06,                                  !- Heating Outdoor Air Flow Rate {m3/s}
  1e-06,                                  !- No Load Outdoor Air Flow Rate {m3/s}
  Fan:OnOff,                              !- Supply Air Fan Object Type
  FanOnOff 11,                            !- Supply Air Fan Name
  Coil:Heating:Electric,                  !- Heating Coil Object Type
  CoilHeatingElectric 12,                 !- Heating Coil Name
  Coil:Cooling:DX:SingleSpeed,            !- Cooling Coil Object Type
  CoilCoolingDXSingleSpeed_PTAC 11 24kBtu/hr 9.5EER, !- Cooling Coil Name
  DrawThrough,                            !- Fan Placement
  Always Off Discrete;                    !- Supply Air Fan Operating Mode Schedule Name

OutdoorAir:Mixer,
  ZoneHVACPackagedTerminalAirConditioner 11 OA Mixer, !- Name
  ZoneHVACPackagedTerminalAirConditioner 11 Mixed Air Node, !- Mixed Air Node Name
  ZoneHVACPackagedTerminalAirConditioner 11 OA Node, !- Outdoor Air Stream Node Name
  ZoneHVACPackagedTerminalAirConditioner 11 Relief Air Node, !- Relief Air Stream Node Name
  ZoneHVACPackagedTerminalAirConditioner 11 Inlet Air Node; !- Return Air Stream Node Name

OutdoorAir:NodeList,
  ZoneHVACPackagedTerminalAirConditioner 11 OA Node; !- Node or NodeList Name 1

Fan:OnOff,
  FanOnOff 11,                            !- Name
  Always On Discrete,                     !- Availability Schedule Name
  0.39975,                                !- Fan Total Efficiency
  331.2882503,                            !- Pressure Rise {Pa}
  Autosize,                               !- Maximum Flow Rate {m3/s}
  0.615,                                  !- Motor Efficiency
  1,                                      !- Motor In Airstream Fraction
  ZoneHVACPackagedTerminalAirConditioner 11 Heating Coil Outlet Node, !- Air Inlet Node Name
  ZoneHVACPackagedTerminalAirConditioner 11 Outlet Air Node, !- Air Outlet Node Name
  Fan On Off Power Curve 11,              !- Fan Power Ratio Function of Speed Ratio Curve Name
  Fan On Off Efficiency Curve 11,         !- Fan Efficiency Ratio Function of Speed Ratio Curve Name
  General;                                !- End-Use Subcategory

Curve:Exponent,
  Fan On Off Power Curve 11,              !- Name
  1,                                      !- Coefficient1 Constant
  0,                                      !- Coefficient2 Constant
  0,                                      !- Coefficient3 Constant
  0,                                      !- Minimum Value of x {BasedOnField A2}
  1;                                      !- Maximum Value of x {BasedOnField A2}

Curve:Cubic,
  Fan On Off Efficiency Curve 11,         !- Name
  1,                                      !- Coefficient1 Constant
  0,                                      !- Coefficient2 x
  0,                                      !- Coefficient3 x**2
  0,                                      !- Coefficient4 x**3
  0,                                      !- Minimum Value of x {BasedOnField A2}
  1;                                      !- Maximum Value of x {BasedOnField A2}

Coil:Heating:Electric,
  CoilHeatingElectric 12,                 !- Name
  Always Off Discrete,                    !- Availability Schedule Name
  1,                                      !- Efficiency
  Autosize,                               !- Nominal Capacity {W}
  ZoneHVACPackagedTerminalAirConditioner 11 Cooling Coil Outlet Node, !- Air Inlet Node Name
  ZoneHVACPackagedTerminalAirConditioner 11 Heating Coil Outlet Node; !- Air Outlet Node Name

Coil:Cooling:DX:SingleSpeed,
  CoilCoolingDXSingleSpeed_PTAC 11 24kBtu/hr 9.5EER, !- Name
  Always On Discrete,                     !- Availability Schedule Name
  Autosize,                               !- Gross Rated Total Cooling Capacity {W}
  Autosize,                               !- Gross Rated Sensible Heat Ratio
  3.30019905299558,                       !- Gross Rated Cooling COP {W/W}
  Autosize,                               !- Rated Air Flow Rate {m3/s}
  773.3,                                  !- Rated Evaporator Fan Power Per Volume Flow Rate 2017 {W/(m3/s)}
  934.4,                                  !- Rated Evaporator Fan Power Per Volume Flow Rate 2023 {W/(m3/s)}
  ZoneHVACPackagedTerminalAirConditioner 11 Mixed Air Node, !- Air Inlet Node Name
  ZoneHVACPackagedTerminalAirConditioner 11 Cooling Coil Outlet Node, !- Air Outlet Node Name
  DXCOOL-NECB2011-REF-CAPFT,              !- Total Cooling Capacity Function of Temperature Curve Name
  DXCOOL-NECB2011-REF-CAPFFLOW,           !- Total Cooling Capacity Function of Flow Fraction Curve Name
  DXCOOL-NECB2011-REF-COOLEIRFT,          !- Energy Input Ratio Function of Temperature Curve Name
  DXCOOL-NECB2011-REF-COOLEIRFFLOW,       !- Energy Input Ratio Function of Flow Fraction Curve Name
  DXCOOL-NECB2011-REF-COOLPLFFPLR,        !- Part Load Fraction Correlation Curve Name
  -25,                                    !- Minimum Outdoor Dry-Bulb Temperature for Compressor Operation {C}
  0,                                      !- Nominal Time for Condensate Removal to Begin {s}
  0,                                      !- Ratio of Initial Moisture Evaporation Rate and Steady State Latent Capacity {dimensionless}
  0,                                      !- Maximum Cycling Rate {cycles/hr}
  0,                                      !- Latent Capacity Time Constant {s}
  ,                                       !- Condenser Air Inlet Node Name
  AirCooled,                              !- Condenser Type
  0.9,                                    !- Evaporative Condenser Effectiveness {dimensionless}
  Autosize,                               !- Evaporative Condenser Air Flow Rate {m3/s}
  Autosize,                               !- Evaporative Condenser Pump Rated Power Consumption {W}
  1e-06,                                  !- Crankcase Heater Capacity {W}
  ,                                       !- Crankcase Heater Capacity Function of Temperature Curve Name
  10,                                     !- Maximum Outdoor Dry-Bulb Temperature for Crankcase Heater Operation {C}
  ,                                       !- Supply Water Storage Tank Name
  ,                                       !- Condensate Collection Water Storage Tank Name
  0,                                      !- Basin Heater Capacity {W/K}
  2;                                      !- Basin Heater Setpoint Temperature {C}

ZoneHVAC:Baseboard:Convective:Electric,
  ZoneHVACBaseboardConvectiveElectric 11, !- Name
  Always On Discrete,                     !- Availability Schedule Name
  ,                                       !- Heating Design Capacity Method
  Autosize,                               !- Heating Design Capacity {W}
  ,                                       !- Heating Design Capacity Per Floor Area {W/m2}
  ,                                       !- Fraction of Autosized Heating Design Capacity
  1;                                      !- Efficiency

ZoneHVAC:EquipmentList,
  DU_BT=Space Function_ST=Dwelling units general_FL=Building Story 2_SCHG 9 Equipment List, !- Name
  SequentialLoad,                         !- Load Distribution Scheme
  ZoneHVAC:AirDistributionUnit,           !- Zone Equipment Object Type 1
  ADU Air Terminal Single Duct Constant Volume No Reheat 12, !- Zone Equipment Name 1
  1,                                      !- Zone Equipment Cooling Sequence 1
  1,                                      !- Zone Equipment Heating or No-Load Sequence 1
  ,                                       !- Zone Equipment Sequential Cooling Fraction Schedule Name 1
  ,                                       !- Zone Equipment Sequential Heating Fraction Schedule Name 1
  ZoneHVAC:PackagedTerminalAirConditioner, !- Zone Equipment Object Type 2
  ZoneHVACPackagedTerminalAirConditioner 11, !- Zone Equipment Name 2
  2,                                      !- Zone Equipment Cooling Sequence 2
  2,                                      !- Zone Equipment Heating or No-Load Sequence 2
  ,                                       !- Zone Equipment Sequential Cooling Fraction Schedule Name 2
  ,                                       !- Zone Equipment Sequential Heating Fraction Schedule Name 2
  ZoneHVAC:Baseboard:Convective:Electric, !- Zone Equipment Object Type 3
  ZoneHVACBaseboardConvectiveElectric 11, !- Zone Equipment Name 3
  3,                                      !- Zone Equipment Cooling Sequence 3
  3,                                      !- Zone Equipment Heating or No-Load Sequence 3
  ,                                       !- Zone Equipment Sequential Cooling Fraction Schedule Name 3
  ;                                       !- Zone Equipment Sequential Heating Fraction Schedule Name 3

Sizing:Zone,
  DU_BT=Space Function_ST=Dwelling units general_FL=Building Story 2_SCHG 9, !- Zone or ZoneList Name
  TemperatureDifference,                  !- Zone Cooling Design Supply Air Temperature Input Method
  13,                                     !- Zone Cooling Design Supply Air Temperature {C}
  11,                                     !- Zone Cooling Design Supply Air Temperature Difference {deltaC}
  TemperatureDifference,                  !- Zone Heating Design Supply Air Temperature Input Method
  43,                                     !- Zone Heating Design Supply Air Temperature {C}
  21,                                     !- Zone Heating Design Supply Air Temperature Difference {deltaC}
  0.0085,                                 !- Zone Cooling Design Supply Air Humidity Ratio {kgWater/kgDryAir}
  0.008,                                  !- Zone Heating Design Supply Air Humidity Ratio {kgWater/kgDryAir}
  DU_BT=Space Function_ST=Dwelling units general_FL=Building Story 2_SCHG 9 DSOA Space List, !- Design Specification Outdoor Air Object Name
  1.3,                                    !- Zone Heating Sizing Factor
  1.1,                                    !- Zone Cooling Sizing Factor
  DesignDay,                              !- Cooling Design Air Flow Method
  0,                                      !- Cooling Design Air Flow Rate {m3/s}
  0.000762,                               !- Cooling Minimum Air Flow per Zone Floor Area {m3/s-m2}
  0,                                      !- Cooling Minimum Air Flow {m3/s}
  0,                                      !- Cooling Minimum Air Flow Fraction
  DesignDay,                              !- Heating Design Air Flow Method
  0,                                      !- Heating Design Air Flow Rate {m3/s}
  0.002032,                               !- Heating Maximum Air Flow per Zone Floor Area {m3/s-m2}
  0.1415762,                              !- Heating Maximum Air Flow {m3/s}
  0.3,                                    !- Heating Maximum Air Flow Fraction
  ,                                       !- Design Specification Zone Air Distribution Object Name
  No,                                     !- Account for Dedicated Outdoor Air System
  ,                                       !- Dedicated Outdoor Air System Control Strategy
  ,                                       !- Dedicated Outdoor Air Low Setpoint Temperature for Design {C}
  ,                                       !- Dedicated Outdoor Air High Setpoint Temperature for Design {C}
  Sensible Load Only No Latent Load,      !- Zone Load Sizing Method
  HumidityRatioDifference,                !- Zone Latent Cooling Design Supply Air Humidity Ratio Input Method
  ,                                       !- Zone Dehumidification Design Supply Air Humidity Ratio {kgWater/kgDryAir}
  0.005,                                  !- Zone Cooling Design Supply Air Humidity Ratio Difference {kgWater/kgDryAir}
  HumidityRatioDifference,                !- Zone Latent Heating Design Supply Air Humidity Ratio Input Method
  ,                                       !- Zone Humidification Design Supply Air Humidity Ratio {kgWater/kgDryAir}
  0.005,                                  !- Zone Humidification Design Supply Air Humidity Ratio Difference {kgWater/kgDryAir}
  ,                                       !- Zone Humidistat Dehumidification Set Point Schedule Name
  ,                                       !- Zone Humidistat Humidification Set Point Schedule Name
  Coincident;                             !- Type of Space Sum to Use

DesignSpecification:OutdoorAir:SpaceList,
  DU_BT=Space Function_ST=Dwelling units general_FL=Building Story 2_SCHG 9 DSOA Space List, !- Name
  M SE Apartment,                         !- Space Name 1
  Space Function Dwelling units general Ventilation; !- Space Design Specification Outdoor Air Object Name 1

Zone,
  DU_BT=Space Function_ST=Dwelling units general_FL=Building Story 3_SCHG, !- Name
  0,                                      !- Direction of Relative North {deg}
  11.5818351633044,                       !- X Origin {m}
  0,                                      !- Y Origin {m}
  6.09570235876431,                       !- Z Origin {m}
  ,                                       !- Type
  1,                                      !- Multiplier
  ,                                       !- Ceiling Height {m}
  ,                                       !- Volume {m3}
  ,                                       !- Floor Area {m2}
  ,                                       !- Zone Inside Convection Algorithm
  ,                                       !- Zone Outside Convection Algorithm
  Yes;                                    !- Part of Total Floor Area

Space,
  T S1 Apartment,                         !- Name
  DU_BT=Space Function_ST=Dwelling units general_FL=Building Story 3_SCHG, !- Zone Name
  ,                                       !- Ceiling Height {m}
  268.97063879463,                        !- Volume {m3}
  ,                                       !- Floor Area {m2}
  Space Function Dwelling units general;  !- Space Type

BuildingSurface:Detailed,
  t EIWALL S1A,                           !- Name
  Wall,                                   !- Surface Type
  BTAP-Int-Wall,                          !- Construction Name
  DU_BT=Space Function_ST=Dwelling units general_FL=Building Story 3_SCHG, !- Zone Name
  T S1 Apartment,                         !- Space Name
  Surface,                                !- Outside Boundary Condition
  t EIWALL S2A Reversed,                  !- Outside Boundary Condition Object
  NoSun,                                  !- Sun Exposure
  NoWind,                                 !- Wind Exposure
  ,                                       !- View Factor to Ground
  ,                                       !- Number of Vertices
  11.581835, 0, 3.047851,                 !- X,Y,Z Vertex 1 {m}
  11.581835, 0, 0,                        !- X,Y,Z Vertex 2 {m}
  11.581835, 7.619628, 0,                 !- X,Y,Z Vertex 3 {m}
  11.581835, 7.619628, 3.047851;          !- X,Y,Z Vertex 4 {m}

BuildingSurface:Detailed,
  t EIWALL SWA Reversed,                  !- Name
  Wall,                                   !- Surface Type
  BTAP-Int-Wall,                          !- Construction Name
  DU_BT=Space Function_ST=Dwelling units general_FL=Building Story 3_SCHG, !- Zone Name
  T S1 Apartment,                         !- Space Name
  Surface,                                !- Outside Boundary Condition
  t EIWALL SWA,                           !- Outside Boundary Condition Object
  NoSun,                                  !- Sun Exposure
  NoWind,                                 !- Wind Exposure
  ,                                       !- View Factor to Ground
  ,                                       !- Number of Vertices
  0, 7.619628, 3.047851,                  !- X,Y,Z Vertex 1 {m}
  0, 7.619628, 0,                         !- X,Y,Z Vertex 2 {m}
  0, 0, 0,                                !- X,Y,Z Vertex 3 {m}
  0, 0, 3.047851;                         !- X,Y,Z Vertex 4 {m}

BuildingSurface:Detailed,
  t GFloor S1A,                           !- Name
  Floor,                                  !- Surface Type
  BTAP-Int-Wall,                          !- Construction Name
  DU_BT=Space Function_ST=Dwelling units general_FL=Building Story 3_SCHG, !- Zone Name
  T S1 Apartment,                         !- Space Name
  Adiabatic,                              !- Outside Boundary Condition
  ,                                       !- Outside Boundary Condition Object
  NoSun,                                  !- Sun Exposure
  NoWind,                                 !- Wind Exposure
  ,                                       !- View Factor to Ground
  ,                                       !- Number of Vertices
  11.581835, 7.619628, 0,                 !- X,Y,Z Vertex 1 {m}
  11.581835, 0, 0,                        !- X,Y,Z Vertex 2 {m}
  0, 0, 0,                                !- X,Y,Z Vertex 3 {m}
  0, 7.619628, 0;                         !- X,Y,Z Vertex 4 {m}

BuildingSurface:Detailed,
  t NIWall S1A,                           !- Name
  Wall,                                   !- Surface Type
  BTAP-Int-Wall,                          !- Construction Name
  DU_BT=Space Function_ST=Dwelling units general_FL=Building Story 3_SCHG, !- Zone Name
  T S1 Apartment,                         !- Space Name
  Surface,                                !- Outside Boundary Condition
  t NIWall S1A Reversed,                  !- Outside Boundary Condition Object
  NoSun,                                  !- Sun Exposure
  NoWind,                                 !- Wind Exposure
  ,                                       !- View Factor to Ground
  ,                                       !- Number of Vertices
  11.581835, 7.619628, 3.047851,          !- X,Y,Z Vertex 1 {m}
  11.581835, 7.619628, 0,                 !- X,Y,Z Vertex 2 {m}
  0, 7.619628, 0,                         !- X,Y,Z Vertex 3 {m}
  0, 7.619628, 3.047851;                  !- X,Y,Z Vertex 4 {m}

BuildingSurface:Detailed,
  t Roof S1A,                             !- Name
  Roof,                                   !- Surface Type
  BTAP-Ext-Roof-Metal:U-0.2,              !- Construction Name
  DU_BT=Space Function_ST=Dwelling units general_FL=Building Story 3_SCHG, !- Zone Name
  T S1 Apartment,                         !- Space Name
  Outdoors,                               !- Outside Boundary Condition
  ,                                       !- Outside Boundary Condition Object
  SunExposed,                             !- Sun Exposure
  WindExposed,                            !- Wind Exposure
  ,                                       !- View Factor to Ground
  ,                                       !- Number of Vertices
  11.581835, 0, 3.047851,                 !- X,Y,Z Vertex 1 {m}
  11.581835, 7.619628, 3.047851,          !- X,Y,Z Vertex 2 {m}
  0, 7.619628, 3.047851,                  !- X,Y,Z Vertex 3 {m}
  0, 0, 3.047851;                         !- X,Y,Z Vertex 4 {m}

FenestrationSurface:Detailed,
  t Roof S1A_Skylight,                    !- Name
  Window,                                 !- Surface Type
  BTAP-Ext-Skylights:U=0.241 SHGC=0.600,  !- Construction Name
  t Roof S1A,                             !- Building Surface Name
  ,                                       !- Outside Boundary Condition Object
  ,                                       !- View Factor to Ground
  ,                                       !- Frame and Divider Name
  1,                                      !- Multiplier
  ,                                       !- Number of Vertices
  6.60987690670837, 3.27102493710811, 3.047851, !- X,Y,Z Vertex 1 {m}
  6.60987690670837, 4.34860306289189, 3.047851, !- X,Y,Z Vertex 2 {m}
  4.97195809329163, 4.34860306289189, 3.047851, !- X,Y,Z Vertex 3 {m}
  4.97195809329163, 3.27102493710811, 3.047851; !- X,Y,Z Vertex 4 {m}

BuildingSurface:Detailed,
  t SWall S1A,                            !- Name
  Wall,                                   !- Surface Type
  BTAP-Ext-Wall-Mass:U-0.29,              !- Construction Name
  DU_BT=Space Function_ST=Dwelling units general_FL=Building Story 3_SCHG, !- Zone Name
  T S1 Apartment,                         !- Space Name
  Outdoors,                               !- Outside Boundary Condition
  ,                                       !- Outside Boundary Condition Object
  SunExposed,                             !- Sun Exposure
  WindExposed,                            !- Wind Exposure
  ,                                       !- View Factor to Ground
  ,                                       !- Number of Vertices
  0, 0, 3.047851,                         !- X,Y,Z Vertex 1 {m}
  0, 0, 0,                                !- X,Y,Z Vertex 2 {m}
  11.581835, 0, 0,                        !- X,Y,Z Vertex 3 {m}
  11.581835, 0, 3.047851;                 !- X,Y,Z Vertex 4 {m}

FenestrationSurface:Detailed,
  t SWall S1A_FixedWindow,                !- Name
  Window,                                 !- Surface Type
  BTAP-Ext-FixedWindow:U=0.280 SHGC=0.600, !- Construction Name
  t SWall S1A,                            !- Building Surface Name
  ,                                       !- Outside Boundary Condition Object
  ,                                       !- View Factor to Ground
  ,                                       !- Frame and Divider Name
  ,                                       !- Multiplier
  ,                                       !- Number of Vertices
  0.0254, 0, 1.78140567865181,            !- X,Y,Z Vertex 1 {m}
  0.0254, 0, 0.762,                       !- X,Y,Z Vertex 2 {m}
  11.556435, 0, 0.762,                    !- X,Y,Z Vertex 3 {m}
  11.556435, 0, 1.78140567865181;         !- X,Y,Z Vertex 4 {m}

ZoneInfiltration:DesignFlowRate,
  T S1 Apartment Infiltration,            !- Name
  T S1 Apartment,                         !- Zone or ZoneList or Space or SpaceList Name
  Always On Discrete,                     !- Schedule Name
  Flow/ExteriorArea,                      !- Design Flow Rate Calculation Method
  ,                                       !- Design Flow Rate {m3/s}
  ,                                       !- Flow Rate per Floor Area {m3/s-m2}
  0.00447586595596712,                    !- Flow Rate per Exterior Surface Area {m3/s-m2}
  ,                                       !- Air Changes per Hour {1/hr}
  0,                                      !- Constant Term Coefficient
  0,                                      !- Temperature Term Coefficient
  0.224,                                  !- Velocity Term Coefficient
  0;                                      !- Velocity Squared Term Coefficient

ZoneControl:Thermostat,
  DU_BT=Space Function_ST=Dwelling units general_FL=Building Story 3_SCHG Thermostat, !- Name
  DU_BT=Space Function_ST=Dwelling units general_FL=Building Story 3_SCHG, !- Zone or ZoneList Name
  DU_BT=Space Function_ST=Dwelling units general_FL=Building Story 3_SCHG Thermostat Schedule, !- Control Type Schedule Name
  ThermostatSetpoint:DualSetpoint,        !- Control 1 Object Type
  Space Function Dwelling units general Thermostat 40, !- Control 1 Name
  ,                                       !- Control 2 Object Type
  ,                                       !- Control 2 Name
  ,                                       !- Control 3 Object Type
  ,                                       !- Control 3 Name
  ,                                       !- Control 4 Object Type
  ,                                       !- Control 4 Name
  0;                                      !- Temperature Difference Between Cutout And Setpoint {deltaC}

Schedule:Compact,
  DU_BT=Space Function_ST=Dwelling units general_FL=Building Story 3_SCHG Thermostat Schedule, !- Name
  DU_BT=Space Function_ST=Dwelling units general_FL=Building Story 3_SCHG Thermostat Schedule Type Limits, !- Schedule Type Limits Name
  Through: 12/31,                         !- Field 1
  For: AllDays,                           !- Field 2
  Until: 24:00,                           !- Field 3
  4;                                      !- Field 4

ScheduleTypeLimits,
  DU_BT=Space Function_ST=Dwelling units general_FL=Building Story 3_SCHG Thermostat Schedule Type Limits, !- Name
  0,                                      !- Lower Limit Value {BasedOnField A3}
  4,                                      !- Upper Limit Value {BasedOnField A3}
  DISCRETE;                               !- Numeric Type

ThermostatSetpoint:DualSetpoint,
  Space Function Dwelling units general Thermostat 40, !- Name
  NECB-G-Thermostat Setpoint-Heating,     !- Heating Setpoint Temperature Schedule Name
  NECB-G-Thermostat Setpoint-Cooling;     !- Cooling Setpoint Temperature Schedule Name

ZoneHVAC:EquipmentConnections,
  DU_BT=Space Function_ST=Dwelling units general_FL=Building Story 3_SCHG, !- Zone Name
  DU_BT=Space Function_ST=Dwelling units general_FL=Building Story 3_SCHG Equipment List, !- Zone Conditioning Equipment List Name
  DU_BT=Space Function_ST=Dwelling units general_FL=Building Story 3_SCHG Inlet Node List, !- Zone Air Inlet Node or NodeList Name
  DU_BT=Space Function_ST=Dwelling units general_FL=Building Story 3_SCHG Exhaust Node List, !- Zone Air Exhaust Node or NodeList Name
  DU_BT=Space Function_ST=Dwelling units general_FL=Building Story 3_SCHG Zone Air Node, !- Zone Air Node Name
  DU_BT=Space Function_ST=Dwelling units general_FL=Building Story 3_SCHG Return Node List; !- Zone Return Air Node or NodeList Name

NodeList,
  DU_BT=Space Function_ST=Dwelling units general_FL=Building Story 3_SCHG Inlet Node List, !- Name
  Air Terminal Single Duct Constant Volume No Reheat 13 Outlet Air Node, !- Node Name 1
  ZoneHVACPackagedTerminalAirConditioner 12 Outlet Air Node; !- Node Name 2

NodeList,
  DU_BT=Space Function_ST=Dwelling units general_FL=Building Story 3_SCHG Exhaust Node List, !- Name
  ZoneHVACPackagedTerminalAirConditioner 12 Inlet Air Node; !- Node Name 1

NodeList,
  DU_BT=Space Function_ST=Dwelling units general_FL=Building Story 3_SCHG Return Node List, !- Name
  DU_BT=Space Function_ST=Dwelling units general_FL=Building Story 3_SCHG Return Air Node; !- Node Name 1

AirTerminal:SingleDuct:ConstantVolume:NoReheat,
  Air Terminal Single Duct Constant Volume No Reheat 13, !- Name
  Always On Discrete,                     !- Availability Schedule Name
  Air Terminal Single Duct Constant Volume No Reheat 13 Inlet Air Node, !- Air Inlet Node Name
  Air Terminal Single Duct Constant Volume No Reheat 13 Outlet Air Node, !- Air Outlet Node Name
  AutoSize;                               !- Maximum Air Flow Rate {m3/s}

ZoneHVAC:AirDistributionUnit,
  ADU Air Terminal Single Duct Constant Volume No Reheat 13, !- Name
  Air Terminal Single Duct Constant Volume No Reheat 13 Outlet Air Node, !- Air Distribution Unit Outlet Node Name
  AirTerminal:SingleDuct:ConstantVolume:NoReheat, !- Air Terminal Object Type
  Air Terminal Single Duct Constant Volume No Reheat 13; !- Air Terminal Name

ZoneHVAC:PackagedTerminalAirConditioner,
  ZoneHVACPackagedTerminalAirConditioner 12, !- Name
  Always On Discrete,                     !- Availability Schedule Name
  ZoneHVACPackagedTerminalAirConditioner 12 Inlet Air Node, !- Air Inlet Node Name
  ZoneHVACPackagedTerminalAirConditioner 12 Outlet Air Node, !- Air Outlet Node Name
  OutdoorAir:Mixer,                       !- Outdoor Air Mixer Object Type
  ZoneHVACPackagedTerminalAirConditioner 12 OA Mixer, !- Outdoor Air Mixer Name
  Autosize,                               !- Cooling Supply Air Flow Rate {m3/s}
  Autosize,                               !- Heating Supply Air Flow Rate {m3/s}
  Autosize,                               !- No Load Supply Air Flow Rate {m3/s}
  Yes,                                    !- No Load Supply Air Flow Rate Control Set To Low Speed
  1e-06,                                  !- Cooling Outdoor Air Flow Rate {m3/s}
  1e-06,                                  !- Heating Outdoor Air Flow Rate {m3/s}
  1e-06,                                  !- No Load Outdoor Air Flow Rate {m3/s}
  Fan:OnOff,                              !- Supply Air Fan Object Type
  FanOnOff 12,                            !- Supply Air Fan Name
  Coil:Heating:Electric,                  !- Heating Coil Object Type
  CoilHeatingElectric 13,                 !- Heating Coil Name
  Coil:Cooling:DX:SingleSpeed,            !- Cooling Coil Object Type
  CoilCoolingDXSingleSpeed_PTAC 12 42kBtu/hr 9.5EER, !- Cooling Coil Name
  DrawThrough,                            !- Fan Placement
  Always Off Discrete;                    !- Supply Air Fan Operating Mode Schedule Name

OutdoorAir:Mixer,
  ZoneHVACPackagedTerminalAirConditioner 12 OA Mixer, !- Name
  ZoneHVACPackagedTerminalAirConditioner 12 Mixed Air Node, !- Mixed Air Node Name
  ZoneHVACPackagedTerminalAirConditioner 12 OA Node, !- Outdoor Air Stream Node Name
  ZoneHVACPackagedTerminalAirConditioner 12 Relief Air Node, !- Relief Air Stream Node Name
  ZoneHVACPackagedTerminalAirConditioner 12 Inlet Air Node; !- Return Air Stream Node Name

OutdoorAir:NodeList,
  ZoneHVACPackagedTerminalAirConditioner 12 OA Node; !- Node or NodeList Name 1

Fan:OnOff,
  FanOnOff 12,                            !- Name
  Always On Discrete,                     !- Availability Schedule Name
  0.39975,                                !- Fan Total Efficiency
  331.2882503,                            !- Pressure Rise {Pa}
  Autosize,                               !- Maximum Flow Rate {m3/s}
  0.615,                                  !- Motor Efficiency
  1,                                      !- Motor In Airstream Fraction
  ZoneHVACPackagedTerminalAirConditioner 12 Heating Coil Outlet Node, !- Air Inlet Node Name
  ZoneHVACPackagedTerminalAirConditioner 12 Outlet Air Node, !- Air Outlet Node Name
  Fan On Off Power Curve 12,              !- Fan Power Ratio Function of Speed Ratio Curve Name
  Fan On Off Efficiency Curve 12,         !- Fan Efficiency Ratio Function of Speed Ratio Curve Name
  General;                                !- End-Use Subcategory

Curve:Exponent,
  Fan On Off Power Curve 12,              !- Name
  1,                                      !- Coefficient1 Constant
  0,                                      !- Coefficient2 Constant
  0,                                      !- Coefficient3 Constant
  0,                                      !- Minimum Value of x {BasedOnField A2}
  1;                                      !- Maximum Value of x {BasedOnField A2}

Curve:Cubic,
  Fan On Off Efficiency Curve 12,         !- Name
  1,                                      !- Coefficient1 Constant
  0,                                      !- Coefficient2 x
  0,                                      !- Coefficient3 x**2
  0,                                      !- Coefficient4 x**3
  0,                                      !- Minimum Value of x {BasedOnField A2}
  1;                                      !- Maximum Value of x {BasedOnField A2}

Coil:Heating:Electric,
  CoilHeatingElectric 13,                 !- Name
  Always Off Discrete,                    !- Availability Schedule Name
  1,                                      !- Efficiency
  Autosize,                               !- Nominal Capacity {W}
  ZoneHVACPackagedTerminalAirConditioner 12 Cooling Coil Outlet Node, !- Air Inlet Node Name
  ZoneHVACPackagedTerminalAirConditioner 12 Heating Coil Outlet Node; !- Air Outlet Node Name

Coil:Cooling:DX:SingleSpeed,
  CoilCoolingDXSingleSpeed_PTAC 12 42kBtu/hr 9.5EER, !- Name
  Always On Discrete,                     !- Availability Schedule Name
  Autosize,                               !- Gross Rated Total Cooling Capacity {W}
  Autosize,                               !- Gross Rated Sensible Heat Ratio
  3.30019905299558,                       !- Gross Rated Cooling COP {W/W}
  Autosize,                               !- Rated Air Flow Rate {m3/s}
  773.3,                                  !- Rated Evaporator Fan Power Per Volume Flow Rate 2017 {W/(m3/s)}
  934.4,                                  !- Rated Evaporator Fan Power Per Volume Flow Rate 2023 {W/(m3/s)}
  ZoneHVACPackagedTerminalAirConditioner 12 Mixed Air Node, !- Air Inlet Node Name
  ZoneHVACPackagedTerminalAirConditioner 12 Cooling Coil Outlet Node, !- Air Outlet Node Name
  DXCOOL-NECB2011-REF-CAPFT,              !- Total Cooling Capacity Function of Temperature Curve Name
  DXCOOL-NECB2011-REF-CAPFFLOW,           !- Total Cooling Capacity Function of Flow Fraction Curve Name
  DXCOOL-NECB2011-REF-COOLEIRFT,          !- Energy Input Ratio Function of Temperature Curve Name
  DXCOOL-NECB2011-REF-COOLEIRFFLOW,       !- Energy Input Ratio Function of Flow Fraction Curve Name
  DXCOOL-NECB2011-REF-COOLPLFFPLR,        !- Part Load Fraction Correlation Curve Name
  -25,                                    !- Minimum Outdoor Dry-Bulb Temperature for Compressor Operation {C}
  0,                                      !- Nominal Time for Condensate Removal to Begin {s}
  0,                                      !- Ratio of Initial Moisture Evaporation Rate and Steady State Latent Capacity {dimensionless}
  0,                                      !- Maximum Cycling Rate {cycles/hr}
  0,                                      !- Latent Capacity Time Constant {s}
  ,                                       !- Condenser Air Inlet Node Name
  AirCooled,                              !- Condenser Type
  0.9,                                    !- Evaporative Condenser Effectiveness {dimensionless}
  Autosize,                               !- Evaporative Condenser Air Flow Rate {m3/s}
  Autosize,                               !- Evaporative Condenser Pump Rated Power Consumption {W}
  1e-06,                                  !- Crankcase Heater Capacity {W}
  ,                                       !- Crankcase Heater Capacity Function of Temperature Curve Name
  10,                                     !- Maximum Outdoor Dry-Bulb Temperature for Crankcase Heater Operation {C}
  ,                                       !- Supply Water Storage Tank Name
  ,                                       !- Condensate Collection Water Storage Tank Name
  0,                                      !- Basin Heater Capacity {W/K}
  2;                                      !- Basin Heater Setpoint Temperature {C}

ZoneHVAC:Baseboard:Convective:Electric,
  ZoneHVACBaseboardConvectiveElectric 12, !- Name
  Always On Discrete,                     !- Availability Schedule Name
  ,                                       !- Heating Design Capacity Method
  Autosize,                               !- Heating Design Capacity {W}
  ,                                       !- Heating Design Capacity Per Floor Area {W/m2}
  ,                                       !- Fraction of Autosized Heating Design Capacity
  1;                                      !- Efficiency

ZoneHVAC:EquipmentList,
  DU_BT=Space Function_ST=Dwelling units general_FL=Building Story 3_SCHG Equipment List, !- Name
  SequentialLoad,                         !- Load Distribution Scheme
  ZoneHVAC:AirDistributionUnit,           !- Zone Equipment Object Type 1
  ADU Air Terminal Single Duct Constant Volume No Reheat 13, !- Zone Equipment Name 1
  1,                                      !- Zone Equipment Cooling Sequence 1
  1,                                      !- Zone Equipment Heating or No-Load Sequence 1
  ,                                       !- Zone Equipment Sequential Cooling Fraction Schedule Name 1
  ,                                       !- Zone Equipment Sequential Heating Fraction Schedule Name 1
  ZoneHVAC:PackagedTerminalAirConditioner, !- Zone Equipment Object Type 2
  ZoneHVACPackagedTerminalAirConditioner 12, !- Zone Equipment Name 2
  2,                                      !- Zone Equipment Cooling Sequence 2
  2,                                      !- Zone Equipment Heating or No-Load Sequence 2
  ,                                       !- Zone Equipment Sequential Cooling Fraction Schedule Name 2
  ,                                       !- Zone Equipment Sequential Heating Fraction Schedule Name 2
  ZoneHVAC:Baseboard:Convective:Electric, !- Zone Equipment Object Type 3
  ZoneHVACBaseboardConvectiveElectric 12, !- Zone Equipment Name 3
  3,                                      !- Zone Equipment Cooling Sequence 3
  3,                                      !- Zone Equipment Heating or No-Load Sequence 3
  ,                                       !- Zone Equipment Sequential Cooling Fraction Schedule Name 3
  ;                                       !- Zone Equipment Sequential Heating Fraction Schedule Name 3

Sizing:Zone,
  DU_BT=Space Function_ST=Dwelling units general_FL=Building Story 3_SCHG, !- Zone or ZoneList Name
  TemperatureDifference,                  !- Zone Cooling Design Supply Air Temperature Input Method
  13,                                     !- Zone Cooling Design Supply Air Temperature {C}
  11,                                     !- Zone Cooling Design Supply Air Temperature Difference {deltaC}
  TemperatureDifference,                  !- Zone Heating Design Supply Air Temperature Input Method
  43,                                     !- Zone Heating Design Supply Air Temperature {C}
  21,                                     !- Zone Heating Design Supply Air Temperature Difference {deltaC}
  0.0085,                                 !- Zone Cooling Design Supply Air Humidity Ratio {kgWater/kgDryAir}
  0.008,                                  !- Zone Heating Design Supply Air Humidity Ratio {kgWater/kgDryAir}
  DU_BT=Space Function_ST=Dwelling units general_FL=Building Story 3_SCHG DSOA Space List, !- Design Specification Outdoor Air Object Name
  1.3,                                    !- Zone Heating Sizing Factor
  1.1,                                    !- Zone Cooling Sizing Factor
  DesignDay,                              !- Cooling Design Air Flow Method
  0,                                      !- Cooling Design Air Flow Rate {m3/s}
  0.000762,                               !- Cooling Minimum Air Flow per Zone Floor Area {m3/s-m2}
  0,                                      !- Cooling Minimum Air Flow {m3/s}
  0,                                      !- Cooling Minimum Air Flow Fraction
  DesignDay,                              !- Heating Design Air Flow Method
  0,                                      !- Heating Design Air Flow Rate {m3/s}
  0.002032,                               !- Heating Maximum Air Flow per Zone Floor Area {m3/s-m2}
  0.1415762,                              !- Heating Maximum Air Flow {m3/s}
  0.3,                                    !- Heating Maximum Air Flow Fraction
  ,                                       !- Design Specification Zone Air Distribution Object Name
  No,                                     !- Account for Dedicated Outdoor Air System
  ,                                       !- Dedicated Outdoor Air System Control Strategy
  ,                                       !- Dedicated Outdoor Air Low Setpoint Temperature for Design {C}
  ,                                       !- Dedicated Outdoor Air High Setpoint Temperature for Design {C}
  Sensible Load Only No Latent Load,      !- Zone Load Sizing Method
  HumidityRatioDifference,                !- Zone Latent Cooling Design Supply Air Humidity Ratio Input Method
  ,                                       !- Zone Dehumidification Design Supply Air Humidity Ratio {kgWater/kgDryAir}
  0.005,                                  !- Zone Cooling Design Supply Air Humidity Ratio Difference {kgWater/kgDryAir}
  HumidityRatioDifference,                !- Zone Latent Heating Design Supply Air Humidity Ratio Input Method
  ,                                       !- Zone Humidification Design Supply Air Humidity Ratio {kgWater/kgDryAir}
  0.005,                                  !- Zone Humidification Design Supply Air Humidity Ratio Difference {kgWater/kgDryAir}
  ,                                       !- Zone Humidistat Dehumidification Set Point Schedule Name
  ,                                       !- Zone Humidistat Humidification Set Point Schedule Name
  Coincident;                             !- Type of Space Sum to Use

DesignSpecification:OutdoorAir:SpaceList,
  DU_BT=Space Function_ST=Dwelling units general_FL=Building Story 3_SCHG DSOA Space List, !- Name
  T S1 Apartment,                         !- Space Name 1
  Space Function Dwelling units general Ventilation; !- Space Design Specification Outdoor Air Object Name 1

Zone,
  DU_BT=Space Function_ST=Dwelling units general_FL=Building Story 3_SCHG 10, !- Name
  0,                                      !- Direction of Relative North {deg}
  0,                                      !- X Origin {m}
  0,                                      !- Y Origin {m}
  6.09570235876431,                       !- Z Origin {m}
  ,                                       !- Type
  1,                                      !- Multiplier
  ,                                       !- Ceiling Height {m}
  ,                                       !- Volume {m3}
  ,                                       !- Floor Area {m2}
  ,                                       !- Zone Inside Convection Algorithm
  ,                                       !- Zone Outside Convection Algorithm
  Yes;                                    !- Part of Total Floor Area

Space,
  T SW Apartment,                         !- Name
  DU_BT=Space Function_ST=Dwelling units general_FL=Building Story 3_SCHG 10, !- Zone Name
  ,                                       !- Ceiling Height {m}
  268.97063879463,                        !- Volume {m3}
  ,                                       !- Floor Area {m2}
  Space Function Dwelling units general;  !- Space Type

BuildingSurface:Detailed,
  t EIWALL SWA,                           !- Name
  Wall,                                   !- Surface Type
  BTAP-Int-Wall,                          !- Construction Name
  DU_BT=Space Function_ST=Dwelling units general_FL=Building Story 3_SCHG 10, !- Zone Name
  T SW Apartment,                         !- Space Name
  Surface,                                !- Outside Boundary Condition
  t EIWALL SWA Reversed,                  !- Outside Boundary Condition Object
  NoSun,                                  !- Sun Exposure
  NoWind,                                 !- Wind Exposure
  ,                                       !- View Factor to Ground
  ,                                       !- Number of Vertices
  11.581835, 0, 3.047851,                 !- X,Y,Z Vertex 1 {m}
  11.581835, 0, 0,                        !- X,Y,Z Vertex 2 {m}
  11.581835, 7.619628, 0,                 !- X,Y,Z Vertex 3 {m}
  11.581835, 7.619628, 3.047851;          !- X,Y,Z Vertex 4 {m}

BuildingSurface:Detailed,
  t GFloor SWA,                           !- Name
  Floor,                                  !- Surface Type
  BTAP-Int-Wall,                          !- Construction Name
  DU_BT=Space Function_ST=Dwelling units general_FL=Building Story 3_SCHG 10, !- Zone Name
  T SW Apartment,                         !- Space Name
  Adiabatic,                              !- Outside Boundary Condition
  ,                                       !- Outside Boundary Condition Object
  NoSun,                                  !- Sun Exposure
  NoWind,                                 !- Wind Exposure
  ,                                       !- View Factor to Ground
  ,                                       !- Number of Vertices
  11.581835, 7.619628, 0,                 !- X,Y,Z Vertex 1 {m}
  11.581835, 0, 0,                        !- X,Y,Z Vertex 2 {m}
  0, 0, 0,                                !- X,Y,Z Vertex 3 {m}
  0, 7.619628, 0;                         !- X,Y,Z Vertex 4 {m}

BuildingSurface:Detailed,
  t NIWall SWA,                           !- Name
  Wall,                                   !- Surface Type
  BTAP-Int-Wall,                          !- Construction Name
  DU_BT=Space Function_ST=Dwelling units general_FL=Building Story 3_SCHG 10, !- Zone Name
  T SW Apartment,                         !- Space Name
  Surface,                                !- Outside Boundary Condition
  t NIWall SWA Reversed,                  !- Outside Boundary Condition Object
  NoSun,                                  !- Sun Exposure
  NoWind,                                 !- Wind Exposure
  ,                                       !- View Factor to Ground
  ,                                       !- Number of Vertices
  11.581835, 7.619628, 3.047851,          !- X,Y,Z Vertex 1 {m}
  11.581835, 7.619628, 0,                 !- X,Y,Z Vertex 2 {m}
  0, 7.619628, 0,                         !- X,Y,Z Vertex 3 {m}
  0, 7.619628, 3.047851;                  !- X,Y,Z Vertex 4 {m}

BuildingSurface:Detailed,
  t Roof SWA,                             !- Name
  Roof,                                   !- Surface Type
  BTAP-Ext-Roof-Metal:U-0.2,              !- Construction Name
  DU_BT=Space Function_ST=Dwelling units general_FL=Building Story 3_SCHG 10, !- Zone Name
  T SW Apartment,                         !- Space Name
  Outdoors,                               !- Outside Boundary Condition
  ,                                       !- Outside Boundary Condition Object
  SunExposed,                             !- Sun Exposure
  WindExposed,                            !- Wind Exposure
  ,                                       !- View Factor to Ground
  ,                                       !- Number of Vertices
  11.581835, 0, 3.047851,                 !- X,Y,Z Vertex 1 {m}
  11.581835, 7.619628, 3.047851,          !- X,Y,Z Vertex 2 {m}
  0, 7.619628, 3.047851,                  !- X,Y,Z Vertex 3 {m}
  0, 0, 3.047851;                         !- X,Y,Z Vertex 4 {m}

FenestrationSurface:Detailed,
  t Roof SWA_Skylight,                    !- Name
  Window,                                 !- Surface Type
  BTAP-Ext-Skylights:U=0.241 SHGC=0.600,  !- Construction Name
  t Roof SWA,                             !- Building Surface Name
  ,                                       !- Outside Boundary Condition Object
  ,                                       !- View Factor to Ground
  ,                                       !- Frame and Divider Name
  1,                                      !- Multiplier
  ,                                       !- Number of Vertices
  6.60987690670837, 3.27102493710811, 3.047851, !- X,Y,Z Vertex 1 {m}
  6.60987690670837, 4.34860306289189, 3.047851, !- X,Y,Z Vertex 2 {m}
  4.97195809329163, 4.34860306289189, 3.047851, !- X,Y,Z Vertex 3 {m}
  4.97195809329163, 3.27102493710811, 3.047851; !- X,Y,Z Vertex 4 {m}

BuildingSurface:Detailed,
  t SWall SWA,                            !- Name
  Wall,                                   !- Surface Type
  BTAP-Ext-Wall-Mass:U-0.29,              !- Construction Name
  DU_BT=Space Function_ST=Dwelling units general_FL=Building Story 3_SCHG 10, !- Zone Name
  T SW Apartment,                         !- Space Name
  Outdoors,                               !- Outside Boundary Condition
  ,                                       !- Outside Boundary Condition Object
  SunExposed,                             !- Sun Exposure
  WindExposed,                            !- Wind Exposure
  ,                                       !- View Factor to Ground
  ,                                       !- Number of Vertices
  0, 0, 3.047851,                         !- X,Y,Z Vertex 1 {m}
  0, 0, 0,                                !- X,Y,Z Vertex 2 {m}
  11.581835, 0, 0,                        !- X,Y,Z Vertex 3 {m}
  11.581835, 0, 3.047851;                 !- X,Y,Z Vertex 4 {m}

FenestrationSurface:Detailed,
  t SWall SWA_FixedWindow,                !- Name
  Window,                                 !- Surface Type
  BTAP-Ext-FixedWindow:U=0.280 SHGC=0.600, !- Construction Name
  t SWall SWA,                            !- Building Surface Name
  ,                                       !- Outside Boundary Condition Object
  ,                                       !- View Factor to Ground
  ,                                       !- Frame and Divider Name
  ,                                       !- Multiplier
  ,                                       !- Number of Vertices
  0.0254, 0, 1.78140567865181,            !- X,Y,Z Vertex 1 {m}
  0.0254, 0, 0.762,                       !- X,Y,Z Vertex 2 {m}
  11.556435, 0, 0.762,                    !- X,Y,Z Vertex 3 {m}
  11.556435, 0, 1.78140567865181;         !- X,Y,Z Vertex 4 {m}

BuildingSurface:Detailed,
  t WWall SWA,                            !- Name
  Wall,                                   !- Surface Type
  BTAP-Ext-Wall-Mass:U-0.29,              !- Construction Name
  DU_BT=Space Function_ST=Dwelling units general_FL=Building Story 3_SCHG 10, !- Zone Name
  T SW Apartment,                         !- Space Name
  Outdoors,                               !- Outside Boundary Condition
  ,                                       !- Outside Boundary Condition Object
  SunExposed,                             !- Sun Exposure
  WindExposed,                            !- Wind Exposure
  ,                                       !- View Factor to Ground
  ,                                       !- Number of Vertices
  0, 7.619628, 3.047851,                  !- X,Y,Z Vertex 1 {m}
  0, 7.619628, 0,                         !- X,Y,Z Vertex 2 {m}
  0, 0, 0,                                !- X,Y,Z Vertex 3 {m}
  0, 0, 3.047851;                         !- X,Y,Z Vertex 4 {m}

FenestrationSurface:Detailed,
  t WWall SWA_FixedWindow,                !- Name
  Window,                                 !- Surface Type
  BTAP-Ext-FixedWindow:U=0.280 SHGC=0.600, !- Construction Name
  t WWall SWA,                            !- Building Surface Name
  ,                                       !- Outside Boundary Condition Object
  ,                                       !- View Factor to Ground
  ,                                       !- Frame and Divider Name
  ,                                       !- Multiplier
  ,                                       !- Number of Vertices
  0, 7.594228, 1.78374635793937,          !- X,Y,Z Vertex 1 {m}
  0, 7.594228, 0.762,                     !- X,Y,Z Vertex 2 {m}
  0, 0.0253999999999994, 0.762,           !- X,Y,Z Vertex 3 {m}
  0, 0.0253999999999994, 1.78374635793937; !- X,Y,Z Vertex 4 {m}

ZoneInfiltration:DesignFlowRate,
  T SW Apartment Infiltration,            !- Name
  T SW Apartment,                         !- Zone or ZoneList or Space or SpaceList Name
  Always On Discrete,                     !- Schedule Name
  Flow/ExteriorArea,                      !- Design Flow Rate Calculation Method
  ,                                       !- Design Flow Rate {m3/s}
  ,                                       !- Flow Rate per Floor Area {m3/s-m2}
  0.00447586595596712,                    !- Flow Rate per Exterior Surface Area {m3/s-m2}
  ,                                       !- Air Changes per Hour {1/hr}
  0,                                      !- Constant Term Coefficient
  0,                                      !- Temperature Term Coefficient
  0.224,                                  !- Velocity Term Coefficient
  0;                                      !- Velocity Squared Term Coefficient

ZoneControl:Thermostat,
  DU_BT=Space Function_ST=Dwelling units general_FL=Building Story 3_SCHG 10 Thermostat, !- Name
  DU_BT=Space Function_ST=Dwelling units general_FL=Building Story 3_SCHG 10, !- Zone or ZoneList Name
  DU_BT=Space Function_ST=Dwelling units general_FL=Building Story 3_SCHG 10 Thermostat Schedule, !- Control Type Schedule Name
  ThermostatSetpoint:DualSetpoint,        !- Control 1 Object Type
  Space Function Dwelling units general Thermostat 45, !- Control 1 Name
  ,                                       !- Control 2 Object Type
  ,                                       !- Control 2 Name
  ,                                       !- Control 3 Object Type
  ,                                       !- Control 3 Name
  ,                                       !- Control 4 Object Type
  ,                                       !- Control 4 Name
  0;                                      !- Temperature Difference Between Cutout And Setpoint {deltaC}

Schedule:Compact,
  DU_BT=Space Function_ST=Dwelling units general_FL=Building Story 3_SCHG 10 Thermostat Schedule, !- Name
  DU_BT=Space Function_ST=Dwelling units general_FL=Building Story 3_SCHG 10 Thermostat Schedule Type Limits, !- Schedule Type Limits Name
  Through: 12/31,                         !- Field 1
  For: AllDays,                           !- Field 2
  Until: 24:00,                           !- Field 3
  4;                                      !- Field 4

ScheduleTypeLimits,
  DU_BT=Space Function_ST=Dwelling units general_FL=Building Story 3_SCHG 10 Thermostat Schedule Type Limits, !- Name
  0,                                      !- Lower Limit Value {BasedOnField A3}
  4,                                      !- Upper Limit Value {BasedOnField A3}
  DISCRETE;                               !- Numeric Type

ThermostatSetpoint:DualSetpoint,
  Space Function Dwelling units general Thermostat 45, !- Name
  NECB-G-Thermostat Setpoint-Heating,     !- Heating Setpoint Temperature Schedule Name
  NECB-G-Thermostat Setpoint-Cooling;     !- Cooling Setpoint Temperature Schedule Name

ZoneHVAC:EquipmentConnections,
  DU_BT=Space Function_ST=Dwelling units general_FL=Building Story 3_SCHG 10, !- Zone Name
  DU_BT=Space Function_ST=Dwelling units general_FL=Building Story 3_SCHG 10 Equipment List, !- Zone Conditioning Equipment List Name
  DU_BT=Space Function_ST=Dwelling units general_FL=Building Story 3_SCHG 10 Inlet Node List, !- Zone Air Inlet Node or NodeList Name
  DU_BT=Space Function_ST=Dwelling units general_FL=Building Story 3_SCHG 10 Exhaust Node List, !- Zone Air Exhaust Node or NodeList Name
  DU_BT=Space Function_ST=Dwelling units general_FL=Building Story 3_SCHG 10 Zone Air Node, !- Zone Air Node Name
  DU_BT=Space Function_ST=Dwelling units general_FL=Building Story 3_SCHG 10 Return Node List; !- Zone Return Air Node or NodeList Name

NodeList,
  DU_BT=Space Function_ST=Dwelling units general_FL=Building Story 3_SCHG 10 Inlet Node List, !- Name
  Air Terminal Single Duct Constant Volume No Reheat 14 Outlet Air Node, !- Node Name 1
  ZoneHVACPackagedTerminalAirConditioner 13 Outlet Air Node; !- Node Name 2

NodeList,
  DU_BT=Space Function_ST=Dwelling units general_FL=Building Story 3_SCHG 10 Exhaust Node List, !- Name
  ZoneHVACPackagedTerminalAirConditioner 13 Inlet Air Node; !- Node Name 1

NodeList,
  DU_BT=Space Function_ST=Dwelling units general_FL=Building Story 3_SCHG 10 Return Node List, !- Name
  DU_BT=Space Function_ST=Dwelling units general_FL=Building Story 3_SCHG 10 Return Air Node; !- Node Name 1

AirTerminal:SingleDuct:ConstantVolume:NoReheat,
  Air Terminal Single Duct Constant Volume No Reheat 14, !- Name
  Always On Discrete,                     !- Availability Schedule Name
  Air Terminal Single Duct Constant Volume No Reheat 14 Inlet Air Node, !- Air Inlet Node Name
  Air Terminal Single Duct Constant Volume No Reheat 14 Outlet Air Node, !- Air Outlet Node Name
  AutoSize;                               !- Maximum Air Flow Rate {m3/s}

ZoneHVAC:AirDistributionUnit,
  ADU Air Terminal Single Duct Constant Volume No Reheat 14, !- Name
  Air Terminal Single Duct Constant Volume No Reheat 14 Outlet Air Node, !- Air Distribution Unit Outlet Node Name
  AirTerminal:SingleDuct:ConstantVolume:NoReheat, !- Air Terminal Object Type
  Air Terminal Single Duct Constant Volume No Reheat 14; !- Air Terminal Name

ZoneHVAC:PackagedTerminalAirConditioner,
  ZoneHVACPackagedTerminalAirConditioner 13, !- Name
  Always On Discrete,                     !- Availability Schedule Name
  ZoneHVACPackagedTerminalAirConditioner 13 Inlet Air Node, !- Air Inlet Node Name
  ZoneHVACPackagedTerminalAirConditioner 13 Outlet Air Node, !- Air Outlet Node Name
  OutdoorAir:Mixer,                       !- Outdoor Air Mixer Object Type
  ZoneHVACPackagedTerminalAirConditioner 13 OA Mixer, !- Outdoor Air Mixer Name
  Autosize,                               !- Cooling Supply Air Flow Rate {m3/s}
  Autosize,                               !- Heating Supply Air Flow Rate {m3/s}
  Autosize,                               !- No Load Supply Air Flow Rate {m3/s}
  Yes,                                    !- No Load Supply Air Flow Rate Control Set To Low Speed
  1e-06,                                  !- Cooling Outdoor Air Flow Rate {m3/s}
  1e-06,                                  !- Heating Outdoor Air Flow Rate {m3/s}
  1e-06,                                  !- No Load Outdoor Air Flow Rate {m3/s}
  Fan:OnOff,                              !- Supply Air Fan Object Type
  FanOnOff 13,                            !- Supply Air Fan Name
  Coil:Heating:Electric,                  !- Heating Coil Object Type
  CoilHeatingElectric 14,                 !- Heating Coil Name
  Coil:Cooling:DX:SingleSpeed,            !- Cooling Coil Object Type
  CoilCoolingDXSingleSpeed_PTAC 13 51kBtu/hr 9.5EER, !- Cooling Coil Name
  DrawThrough,                            !- Fan Placement
  Always Off Discrete;                    !- Supply Air Fan Operating Mode Schedule Name

OutdoorAir:Mixer,
  ZoneHVACPackagedTerminalAirConditioner 13 OA Mixer, !- Name
  ZoneHVACPackagedTerminalAirConditioner 13 Mixed Air Node, !- Mixed Air Node Name
  ZoneHVACPackagedTerminalAirConditioner 13 OA Node, !- Outdoor Air Stream Node Name
  ZoneHVACPackagedTerminalAirConditioner 13 Relief Air Node, !- Relief Air Stream Node Name
  ZoneHVACPackagedTerminalAirConditioner 13 Inlet Air Node; !- Return Air Stream Node Name

OutdoorAir:NodeList,
  ZoneHVACPackagedTerminalAirConditioner 13 OA Node; !- Node or NodeList Name 1

Fan:OnOff,
  FanOnOff 13,                            !- Name
  Always On Discrete,                     !- Availability Schedule Name
  0.39975,                                !- Fan Total Efficiency
  331.2882503,                            !- Pressure Rise {Pa}
  Autosize,                               !- Maximum Flow Rate {m3/s}
  0.615,                                  !- Motor Efficiency
  1,                                      !- Motor In Airstream Fraction
  ZoneHVACPackagedTerminalAirConditioner 13 Heating Coil Outlet Node, !- Air Inlet Node Name
  ZoneHVACPackagedTerminalAirConditioner 13 Outlet Air Node, !- Air Outlet Node Name
  Fan On Off Power Curve 13,              !- Fan Power Ratio Function of Speed Ratio Curve Name
  Fan On Off Efficiency Curve 13,         !- Fan Efficiency Ratio Function of Speed Ratio Curve Name
  General;                                !- End-Use Subcategory

Curve:Exponent,
  Fan On Off Power Curve 13,              !- Name
  1,                                      !- Coefficient1 Constant
  0,                                      !- Coefficient2 Constant
  0,                                      !- Coefficient3 Constant
  0,                                      !- Minimum Value of x {BasedOnField A2}
  1;                                      !- Maximum Value of x {BasedOnField A2}

Curve:Cubic,
  Fan On Off Efficiency Curve 13,         !- Name
  1,                                      !- Coefficient1 Constant
  0,                                      !- Coefficient2 x
  0,                                      !- Coefficient3 x**2
  0,                                      !- Coefficient4 x**3
  0,                                      !- Minimum Value of x {BasedOnField A2}
  1;                                      !- Maximum Value of x {BasedOnField A2}

Coil:Heating:Electric,
  CoilHeatingElectric 14,                 !- Name
  Always Off Discrete,                    !- Availability Schedule Name
  1,                                      !- Efficiency
  Autosize,                               !- Nominal Capacity {W}
  ZoneHVACPackagedTerminalAirConditioner 13 Cooling Coil Outlet Node, !- Air Inlet Node Name
  ZoneHVACPackagedTerminalAirConditioner 13 Heating Coil Outlet Node; !- Air Outlet Node Name

Coil:Cooling:DX:SingleSpeed,
  CoilCoolingDXSingleSpeed_PTAC 13 51kBtu/hr 9.5EER, !- Name
  Always On Discrete,                     !- Availability Schedule Name
  Autosize,                               !- Gross Rated Total Cooling Capacity {W}
  Autosize,                               !- Gross Rated Sensible Heat Ratio
  3.30019905299558,                       !- Gross Rated Cooling COP {W/W}
  Autosize,                               !- Rated Air Flow Rate {m3/s}
  773.3,                                  !- Rated Evaporator Fan Power Per Volume Flow Rate 2017 {W/(m3/s)}
  934.4,                                  !- Rated Evaporator Fan Power Per Volume Flow Rate 2023 {W/(m3/s)}
  ZoneHVACPackagedTerminalAirConditioner 13 Mixed Air Node, !- Air Inlet Node Name
  ZoneHVACPackagedTerminalAirConditioner 13 Cooling Coil Outlet Node, !- Air Outlet Node Name
  DXCOOL-NECB2011-REF-CAPFT,              !- Total Cooling Capacity Function of Temperature Curve Name
  DXCOOL-NECB2011-REF-CAPFFLOW,           !- Total Cooling Capacity Function of Flow Fraction Curve Name
  DXCOOL-NECB2011-REF-COOLEIRFT,          !- Energy Input Ratio Function of Temperature Curve Name
  DXCOOL-NECB2011-REF-COOLEIRFFLOW,       !- Energy Input Ratio Function of Flow Fraction Curve Name
  DXCOOL-NECB2011-REF-COOLPLFFPLR,        !- Part Load Fraction Correlation Curve Name
  -25,                                    !- Minimum Outdoor Dry-Bulb Temperature for Compressor Operation {C}
  0,                                      !- Nominal Time for Condensate Removal to Begin {s}
  0,                                      !- Ratio of Initial Moisture Evaporation Rate and Steady State Latent Capacity {dimensionless}
  0,                                      !- Maximum Cycling Rate {cycles/hr}
  0,                                      !- Latent Capacity Time Constant {s}
  ,                                       !- Condenser Air Inlet Node Name
  AirCooled,                              !- Condenser Type
  0.9,                                    !- Evaporative Condenser Effectiveness {dimensionless}
  Autosize,                               !- Evaporative Condenser Air Flow Rate {m3/s}
  Autosize,                               !- Evaporative Condenser Pump Rated Power Consumption {W}
  1e-06,                                  !- Crankcase Heater Capacity {W}
  ,                                       !- Crankcase Heater Capacity Function of Temperature Curve Name
  10,                                     !- Maximum Outdoor Dry-Bulb Temperature for Crankcase Heater Operation {C}
  ,                                       !- Supply Water Storage Tank Name
  ,                                       !- Condensate Collection Water Storage Tank Name
  0,                                      !- Basin Heater Capacity {W/K}
  2;                                      !- Basin Heater Setpoint Temperature {C}

ZoneHVAC:Baseboard:Convective:Electric,
  ZoneHVACBaseboardConvectiveElectric 13, !- Name
  Always On Discrete,                     !- Availability Schedule Name
  ,                                       !- Heating Design Capacity Method
  Autosize,                               !- Heating Design Capacity {W}
  ,                                       !- Heating Design Capacity Per Floor Area {W/m2}
  ,                                       !- Fraction of Autosized Heating Design Capacity
  1;                                      !- Efficiency

ZoneHVAC:EquipmentList,
  DU_BT=Space Function_ST=Dwelling units general_FL=Building Story 3_SCHG 10 Equipment List, !- Name
  SequentialLoad,                         !- Load Distribution Scheme
  ZoneHVAC:AirDistributionUnit,           !- Zone Equipment Object Type 1
  ADU Air Terminal Single Duct Constant Volume No Reheat 14, !- Zone Equipment Name 1
  1,                                      !- Zone Equipment Cooling Sequence 1
  1,                                      !- Zone Equipment Heating or No-Load Sequence 1
  ,                                       !- Zone Equipment Sequential Cooling Fraction Schedule Name 1
  ,                                       !- Zone Equipment Sequential Heating Fraction Schedule Name 1
  ZoneHVAC:PackagedTerminalAirConditioner, !- Zone Equipment Object Type 2
  ZoneHVACPackagedTerminalAirConditioner 13, !- Zone Equipment Name 2
  2,                                      !- Zone Equipment Cooling Sequence 2
  2,                                      !- Zone Equipment Heating or No-Load Sequence 2
  ,                                       !- Zone Equipment Sequential Cooling Fraction Schedule Name 2
  ,                                       !- Zone Equipment Sequential Heating Fraction Schedule Name 2
  ZoneHVAC:Baseboard:Convective:Electric, !- Zone Equipment Object Type 3
  ZoneHVACBaseboardConvectiveElectric 13, !- Zone Equipment Name 3
  3,                                      !- Zone Equipment Cooling Sequence 3
  3,                                      !- Zone Equipment Heating or No-Load Sequence 3
  ,                                       !- Zone Equipment Sequential Cooling Fraction Schedule Name 3
  ;                                       !- Zone Equipment Sequential Heating Fraction Schedule Name 3

Sizing:Zone,
  DU_BT=Space Function_ST=Dwelling units general_FL=Building Story 3_SCHG 10, !- Zone or ZoneList Name
  TemperatureDifference,                  !- Zone Cooling Design Supply Air Temperature Input Method
  13,                                     !- Zone Cooling Design Supply Air Temperature {C}
  11,                                     !- Zone Cooling Design Supply Air Temperature Difference {deltaC}
  TemperatureDifference,                  !- Zone Heating Design Supply Air Temperature Input Method
  43,                                     !- Zone Heating Design Supply Air Temperature {C}
  21,                                     !- Zone Heating Design Supply Air Temperature Difference {deltaC}
  0.0085,                                 !- Zone Cooling Design Supply Air Humidity Ratio {kgWater/kgDryAir}
  0.008,                                  !- Zone Heating Design Supply Air Humidity Ratio {kgWater/kgDryAir}
  DU_BT=Space Function_ST=Dwelling units general_FL=Building Story 3_SCHG 10 DSOA Space List, !- Design Specification Outdoor Air Object Name
  1.3,                                    !- Zone Heating Sizing Factor
  1.1,                                    !- Zone Cooling Sizing Factor
  DesignDay,                              !- Cooling Design Air Flow Method
  0,                                      !- Cooling Design Air Flow Rate {m3/s}
  0.000762,                               !- Cooling Minimum Air Flow per Zone Floor Area {m3/s-m2}
  0,                                      !- Cooling Minimum Air Flow {m3/s}
  0,                                      !- Cooling Minimum Air Flow Fraction
  DesignDay,                              !- Heating Design Air Flow Method
  0,                                      !- Heating Design Air Flow Rate {m3/s}
  0.002032,                               !- Heating Maximum Air Flow per Zone Floor Area {m3/s-m2}
  0.1415762,                              !- Heating Maximum Air Flow {m3/s}
  0.3,                                    !- Heating Maximum Air Flow Fraction
  ,                                       !- Design Specification Zone Air Distribution Object Name
  No,                                     !- Account for Dedicated Outdoor Air System
  ,                                       !- Dedicated Outdoor Air System Control Strategy
  ,                                       !- Dedicated Outdoor Air Low Setpoint Temperature for Design {C}
  ,                                       !- Dedicated Outdoor Air High Setpoint Temperature for Design {C}
  Sensible Load Only No Latent Load,      !- Zone Load Sizing Method
  HumidityRatioDifference,                !- Zone Latent Cooling Design Supply Air Humidity Ratio Input Method
  ,                                       !- Zone Dehumidification Design Supply Air Humidity Ratio {kgWater/kgDryAir}
  0.005,                                  !- Zone Cooling Design Supply Air Humidity Ratio Difference {kgWater/kgDryAir}
  HumidityRatioDifference,                !- Zone Latent Heating Design Supply Air Humidity Ratio Input Method
  ,                                       !- Zone Humidification Design Supply Air Humidity Ratio {kgWater/kgDryAir}
  0.005,                                  !- Zone Humidification Design Supply Air Humidity Ratio Difference {kgWater/kgDryAir}
  ,                                       !- Zone Humidistat Dehumidification Set Point Schedule Name
  ,                                       !- Zone Humidistat Humidification Set Point Schedule Name
  Coincident;                             !- Type of Space Sum to Use

DesignSpecification:OutdoorAir:SpaceList,
  DU_BT=Space Function_ST=Dwelling units general_FL=Building Story 3_SCHG 10 DSOA Space List, !- Name
  T SW Apartment,                         !- Space Name 1
  Space Function Dwelling units general Ventilation; !- Space Design Specification Outdoor Air Object Name 1

Zone,
  DU_BT=Space Function_ST=Dwelling units general_FL=Building Story 3_SCHG 11, !- Name
  0,                                      !- Direction of Relative North {deg}
  11.5818351633044,                       !- X Origin {m}
  9.29594664423115,                       !- Y Origin {m}
  6.09570235876431,                       !- Z Origin {m}
  ,                                       !- Type
  1,                                      !- Multiplier
  ,                                       !- Ceiling Height {m}
  ,                                       !- Volume {m3}
  ,                                       !- Floor Area {m2}
  ,                                       !- Zone Inside Convection Algorithm
  ,                                       !- Zone Outside Convection Algorithm
  Yes;                                    !- Part of Total Floor Area

Space,
  T N1 Apartment,                         !- Name
  DU_BT=Space Function_ST=Dwelling units general_FL=Building Story 3_SCHG 11, !- Zone Name
  ,                                       !- Ceiling Height {m}
  268.970640058796,                       !- Volume {m3}
  ,                                       !- Floor Area {m2}
  Space Function Dwelling units general;  !- Space Type

BuildingSurface:Detailed,
  t EIWALL N1A,                           !- Name
  Wall,                                   !- Surface Type
  BTAP-Int-Wall,                          !- Construction Name
  DU_BT=Space Function_ST=Dwelling units general_FL=Building Story 3_SCHG 11, !- Zone Name
  T N1 Apartment,                         !- Space Name
  Surface,                                !- Outside Boundary Condition
  t EIWALL N2A Reversed,                  !- Outside Boundary Condition Object
  NoSun,                                  !- Sun Exposure
  NoWind,                                 !- Wind Exposure
  ,                                       !- View Factor to Ground
  ,                                       !- Number of Vertices
  11.581835, 0, 3.047851,                 !- X,Y,Z Vertex 1 {m}
  11.581835, 0, 0,                        !- X,Y,Z Vertex 2 {m}
  11.581835, 7.619628, 0,                 !- X,Y,Z Vertex 3 {m}
  11.581835, 7.619628, 3.047851;          !- X,Y,Z Vertex 4 {m}

BuildingSurface:Detailed,
  t EIWALL NWA Reversed,                  !- Name
  Wall,                                   !- Surface Type
  BTAP-Int-Wall,                          !- Construction Name
  DU_BT=Space Function_ST=Dwelling units general_FL=Building Story 3_SCHG 11, !- Zone Name
  T N1 Apartment,                         !- Space Name
  Surface,                                !- Outside Boundary Condition
  t EIWALL NWA,                           !- Outside Boundary Condition Object
  NoSun,                                  !- Sun Exposure
  NoWind,                                 !- Wind Exposure
  ,                                       !- View Factor to Ground
  ,                                       !- Number of Vertices
  -1.63304399336539e-07, 7.619628, 3.047851, !- X,Y,Z Vertex 1 {m}
  -1.63304399336539e-07, 7.619628, 0,     !- X,Y,Z Vertex 2 {m}
  0, 0, 0,                                !- X,Y,Z Vertex 3 {m}
  0, 0, 3.047851;                         !- X,Y,Z Vertex 4 {m}

BuildingSurface:Detailed,
  t GFloor N1A,                           !- Name
  Floor,                                  !- Surface Type
  BTAP-Int-Wall,                          !- Construction Name
  DU_BT=Space Function_ST=Dwelling units general_FL=Building Story 3_SCHG 11, !- Zone Name
  T N1 Apartment,                         !- Space Name
  Adiabatic,                              !- Outside Boundary Condition
  ,                                       !- Outside Boundary Condition Object
  NoSun,                                  !- Sun Exposure
  NoWind,                                 !- Wind Exposure
  ,                                       !- View Factor to Ground
  ,                                       !- Number of Vertices
  11.581835, 7.619628, 0,                 !- X,Y,Z Vertex 1 {m}
  11.581835, 0, 0,                        !- X,Y,Z Vertex 2 {m}
  0, 0, 0,                                !- X,Y,Z Vertex 3 {m}
  0, 7.619628, 0;                         !- X,Y,Z Vertex 4 {m}

BuildingSurface:Detailed,
  t NWall N1A,                            !- Name
  Wall,                                   !- Surface Type
  BTAP-Ext-Wall-Mass:U-0.29,              !- Construction Name
  DU_BT=Space Function_ST=Dwelling units general_FL=Building Story 3_SCHG 11, !- Zone Name
  T N1 Apartment,                         !- Space Name
  Outdoors,                               !- Outside Boundary Condition
  ,                                       !- Outside Boundary Condition Object
  SunExposed,                             !- Sun Exposure
  WindExposed,                            !- Wind Exposure
  ,                                       !- View Factor to Ground
  ,                                       !- Number of Vertices
  11.581835, 7.619628, 3.047851,          !- X,Y,Z Vertex 1 {m}
  11.581835, 7.619628, 0,                 !- X,Y,Z Vertex 2 {m}
  -1.63304399336539e-07, 7.619628, 0,     !- X,Y,Z Vertex 3 {m}
  -1.63304399336539e-07, 7.619628, 3.047851; !- X,Y,Z Vertex 4 {m}

FenestrationSurface:Detailed,
  t NWall N1A_FixedWindow,                !- Name
  Window,                                 !- Surface Type
  BTAP-Ext-FixedWindow:U=0.280 SHGC=0.600, !- Construction Name
  t NWall N1A,                            !- Building Surface Name
  ,                                       !- Outside Boundary Condition Object
  ,                                       !- View Factor to Ground
  ,                                       !- Frame and Divider Name
  ,                                       !- Multiplier
  ,                                       !- Number of Vertices
  11.556435, 7.619628, 1.78140567858849,  !- X,Y,Z Vertex 1 {m}
  11.556435, 7.619628, 0.762,             !- X,Y,Z Vertex 2 {m}
  0.0253998366956019, 7.619628, 0.762,    !- X,Y,Z Vertex 3 {m}
  0.0253998366956019, 7.619628, 1.78140567858849; !- X,Y,Z Vertex 4 {m}

BuildingSurface:Detailed,
  t Roof N1A,                             !- Name
  Roof,                                   !- Surface Type
  BTAP-Ext-Roof-Metal:U-0.2,              !- Construction Name
  DU_BT=Space Function_ST=Dwelling units general_FL=Building Story 3_SCHG 11, !- Zone Name
  T N1 Apartment,                         !- Space Name
  Outdoors,                               !- Outside Boundary Condition
  ,                                       !- Outside Boundary Condition Object
  SunExposed,                             !- Sun Exposure
  WindExposed,                            !- Wind Exposure
  ,                                       !- View Factor to Ground
  ,                                       !- Number of Vertices
  11.581835, 0, 3.047851,                 !- X,Y,Z Vertex 1 {m}
  11.581835, 7.619628, 3.047851,          !- X,Y,Z Vertex 2 {m}
  0, 7.619628, 3.047851,                  !- X,Y,Z Vertex 3 {m}
  0, 0, 3.047851;                         !- X,Y,Z Vertex 4 {m}

FenestrationSurface:Detailed,
  t Roof N1A_Skylight,                    !- Name
  Window,                                 !- Surface Type
  BTAP-Ext-Skylights:U=0.241 SHGC=0.600,  !- Construction Name
  t Roof N1A,                             !- Building Surface Name
  ,                                       !- Outside Boundary Condition Object
  ,                                       !- View Factor to Ground
  ,                                       !- Frame and Divider Name
  1,                                      !- Multiplier
  ,                                       !- Number of Vertices
  6.60987690670837, 3.27102493710811, 3.047851, !- X,Y,Z Vertex 1 {m}
  6.60987690670837, 4.34860306289189, 3.047851, !- X,Y,Z Vertex 2 {m}
  4.97195809329163, 4.34860306289189, 3.047851, !- X,Y,Z Vertex 3 {m}
  4.97195809329163, 3.27102493710811, 3.047851; !- X,Y,Z Vertex 4 {m}

BuildingSurface:Detailed,
  t SIWall N1A,                           !- Name
  Wall,                                   !- Surface Type
  BTAP-Int-Wall,                          !- Construction Name
  DU_BT=Space Function_ST=Dwelling units general_FL=Building Story 3_SCHG 11, !- Zone Name
  T N1 Apartment,                         !- Space Name
  Surface,                                !- Outside Boundary Condition
  t SIWall N1A Reversed,                  !- Outside Boundary Condition Object
  NoSun,                                  !- Sun Exposure
  NoWind,                                 !- Wind Exposure
  ,                                       !- View Factor to Ground
  ,                                       !- Number of Vertices
  0, 0, 3.047851,                         !- X,Y,Z Vertex 1 {m}
  0, 0, 0,                                !- X,Y,Z Vertex 2 {m}
  11.581835, 0, 0,                        !- X,Y,Z Vertex 3 {m}
  11.581835, 0, 3.047851;                 !- X,Y,Z Vertex 4 {m}

ZoneInfiltration:DesignFlowRate,
  T N1 Apartment Infiltration,            !- Name
  T N1 Apartment,                         !- Zone or ZoneList or Space or SpaceList Name
  Always On Discrete,                     !- Schedule Name
  Flow/ExteriorArea,                      !- Design Flow Rate Calculation Method
  ,                                       !- Design Flow Rate {m3/s}
  ,                                       !- Flow Rate per Floor Area {m3/s-m2}
  0.00447586595596712,                    !- Flow Rate per Exterior Surface Area {m3/s-m2}
  ,                                       !- Air Changes per Hour {1/hr}
  0,                                      !- Constant Term Coefficient
  0,                                      !- Temperature Term Coefficient
  0.224,                                  !- Velocity Term Coefficient
  0;                                      !- Velocity Squared Term Coefficient

ZoneControl:Thermostat,
  DU_BT=Space Function_ST=Dwelling units general_FL=Building Story 3_SCHG 11 Thermostat, !- Name
  DU_BT=Space Function_ST=Dwelling units general_FL=Building Story 3_SCHG 11, !- Zone or ZoneList Name
  DU_BT=Space Function_ST=Dwelling units general_FL=Building Story 3_SCHG 11 Thermostat Schedule, !- Control Type Schedule Name
  ThermostatSetpoint:DualSetpoint,        !- Control 1 Object Type
  Space Function Dwelling units general Thermostat 48, !- Control 1 Name
  ,                                       !- Control 2 Object Type
  ,                                       !- Control 2 Name
  ,                                       !- Control 3 Object Type
  ,                                       !- Control 3 Name
  ,                                       !- Control 4 Object Type
  ,                                       !- Control 4 Name
  0;                                      !- Temperature Difference Between Cutout And Setpoint {deltaC}

Schedule:Compact,
  DU_BT=Space Function_ST=Dwelling units general_FL=Building Story 3_SCHG 11 Thermostat Schedule, !- Name
  DU_BT=Space Function_ST=Dwelling units general_FL=Building Story 3_SCHG 11 Thermostat Schedule Type Limits, !- Schedule Type Limits Name
  Through: 12/31,                         !- Field 1
  For: AllDays,                           !- Field 2
  Until: 24:00,                           !- Field 3
  4;                                      !- Field 4

ScheduleTypeLimits,
  DU_BT=Space Function_ST=Dwelling units general_FL=Building Story 3_SCHG 11 Thermostat Schedule Type Limits, !- Name
  0,                                      !- Lower Limit Value {BasedOnField A3}
  4,                                      !- Upper Limit Value {BasedOnField A3}
  DISCRETE;                               !- Numeric Type

ThermostatSetpoint:DualSetpoint,
  Space Function Dwelling units general Thermostat 48, !- Name
  NECB-G-Thermostat Setpoint-Heating,     !- Heating Setpoint Temperature Schedule Name
  NECB-G-Thermostat Setpoint-Cooling;     !- Cooling Setpoint Temperature Schedule Name

ZoneHVAC:EquipmentConnections,
  DU_BT=Space Function_ST=Dwelling units general_FL=Building Story 3_SCHG 11, !- Zone Name
  DU_BT=Space Function_ST=Dwelling units general_FL=Building Story 3_SCHG 11 Equipment List, !- Zone Conditioning Equipment List Name
  DU_BT=Space Function_ST=Dwelling units general_FL=Building Story 3_SCHG 11 Inlet Node List, !- Zone Air Inlet Node or NodeList Name
  DU_BT=Space Function_ST=Dwelling units general_FL=Building Story 3_SCHG 11 Exhaust Node List, !- Zone Air Exhaust Node or NodeList Name
  DU_BT=Space Function_ST=Dwelling units general_FL=Building Story 3_SCHG 11 Zone Air Node, !- Zone Air Node Name
  DU_BT=Space Function_ST=Dwelling units general_FL=Building Story 3_SCHG 11 Return Node List; !- Zone Return Air Node or NodeList Name

NodeList,
  DU_BT=Space Function_ST=Dwelling units general_FL=Building Story 3_SCHG 11 Inlet Node List, !- Name
  Air Terminal Single Duct Constant Volume No Reheat 15 Outlet Air Node, !- Node Name 1
  ZoneHVACPackagedTerminalAirConditioner 14 Outlet Air Node; !- Node Name 2

NodeList,
  DU_BT=Space Function_ST=Dwelling units general_FL=Building Story 3_SCHG 11 Exhaust Node List, !- Name
  ZoneHVACPackagedTerminalAirConditioner 14 Inlet Air Node; !- Node Name 1

NodeList,
  DU_BT=Space Function_ST=Dwelling units general_FL=Building Story 3_SCHG 11 Return Node List, !- Name
  DU_BT=Space Function_ST=Dwelling units general_FL=Building Story 3_SCHG 11 Return Air Node; !- Node Name 1

AirTerminal:SingleDuct:ConstantVolume:NoReheat,
  Air Terminal Single Duct Constant Volume No Reheat 15, !- Name
  Always On Discrete,                     !- Availability Schedule Name
  Air Terminal Single Duct Constant Volume No Reheat 15 Inlet Air Node, !- Air Inlet Node Name
  Air Terminal Single Duct Constant Volume No Reheat 15 Outlet Air Node, !- Air Outlet Node Name
  AutoSize;                               !- Maximum Air Flow Rate {m3/s}

ZoneHVAC:AirDistributionUnit,
  ADU Air Terminal Single Duct Constant Volume No Reheat 15, !- Name
  Air Terminal Single Duct Constant Volume No Reheat 15 Outlet Air Node, !- Air Distribution Unit Outlet Node Name
  AirTerminal:SingleDuct:ConstantVolume:NoReheat, !- Air Terminal Object Type
  Air Terminal Single Duct Constant Volume No Reheat 15; !- Air Terminal Name

ZoneHVAC:PackagedTerminalAirConditioner,
  ZoneHVACPackagedTerminalAirConditioner 14, !- Name
  Always On Discrete,                     !- Availability Schedule Name
  ZoneHVACPackagedTerminalAirConditioner 14 Inlet Air Node, !- Air Inlet Node Name
  ZoneHVACPackagedTerminalAirConditioner 14 Outlet Air Node, !- Air Outlet Node Name
  OutdoorAir:Mixer,                       !- Outdoor Air Mixer Object Type
  ZoneHVACPackagedTerminalAirConditioner 14 OA Mixer, !- Outdoor Air Mixer Name
  Autosize,                               !- Cooling Supply Air Flow Rate {m3/s}
  Autosize,                               !- Heating Supply Air Flow Rate {m3/s}
  Autosize,                               !- No Load Supply Air Flow Rate {m3/s}
  Yes,                                    !- No Load Supply Air Flow Rate Control Set To Low Speed
  1e-06,                                  !- Cooling Outdoor Air Flow Rate {m3/s}
  1e-06,                                  !- Heating Outdoor Air Flow Rate {m3/s}
  1e-06,                                  !- No Load Outdoor Air Flow Rate {m3/s}
  Fan:OnOff,                              !- Supply Air Fan Object Type
  FanOnOff 14,                            !- Supply Air Fan Name
  Coil:Heating:Electric,                  !- Heating Coil Object Type
  CoilHeatingElectric 15,                 !- Heating Coil Name
  Coil:Cooling:DX:SingleSpeed,            !- Cooling Coil Object Type
  CoilCoolingDXSingleSpeed_PTAC 14 42kBtu/hr 9.5EER, !- Cooling Coil Name
  DrawThrough,                            !- Fan Placement
  Always Off Discrete;                    !- Supply Air Fan Operating Mode Schedule Name

OutdoorAir:Mixer,
  ZoneHVACPackagedTerminalAirConditioner 14 OA Mixer, !- Name
  ZoneHVACPackagedTerminalAirConditioner 14 Mixed Air Node, !- Mixed Air Node Name
  ZoneHVACPackagedTerminalAirConditioner 14 OA Node, !- Outdoor Air Stream Node Name
  ZoneHVACPackagedTerminalAirConditioner 14 Relief Air Node, !- Relief Air Stream Node Name
  ZoneHVACPackagedTerminalAirConditioner 14 Inlet Air Node; !- Return Air Stream Node Name

OutdoorAir:NodeList,
  ZoneHVACPackagedTerminalAirConditioner 14 OA Node; !- Node or NodeList Name 1

Fan:OnOff,
  FanOnOff 14,                            !- Name
  Always On Discrete,                     !- Availability Schedule Name
  0.39975,                                !- Fan Total Efficiency
  331.2882503,                            !- Pressure Rise {Pa}
  Autosize,                               !- Maximum Flow Rate {m3/s}
  0.615,                                  !- Motor Efficiency
  1,                                      !- Motor In Airstream Fraction
  ZoneHVACPackagedTerminalAirConditioner 14 Heating Coil Outlet Node, !- Air Inlet Node Name
  ZoneHVACPackagedTerminalAirConditioner 14 Outlet Air Node, !- Air Outlet Node Name
  Fan On Off Power Curve 14,              !- Fan Power Ratio Function of Speed Ratio Curve Name
  Fan On Off Efficiency Curve 14,         !- Fan Efficiency Ratio Function of Speed Ratio Curve Name
  General;                                !- End-Use Subcategory

Curve:Exponent,
  Fan On Off Power Curve 14,              !- Name
  1,                                      !- Coefficient1 Constant
  0,                                      !- Coefficient2 Constant
  0,                                      !- Coefficient3 Constant
  0,                                      !- Minimum Value of x {BasedOnField A2}
  1;                                      !- Maximum Value of x {BasedOnField A2}

Curve:Cubic,
  Fan On Off Efficiency Curve 14,         !- Name
  1,                                      !- Coefficient1 Constant
  0,                                      !- Coefficient2 x
  0,                                      !- Coefficient3 x**2
  0,                                      !- Coefficient4 x**3
  0,                                      !- Minimum Value of x {BasedOnField A2}
  1;                                      !- Maximum Value of x {BasedOnField A2}

Coil:Heating:Electric,
  CoilHeatingElectric 15,                 !- Name
  Always Off Discrete,                    !- Availability Schedule Name
  1,                                      !- Efficiency
  Autosize,                               !- Nominal Capacity {W}
  ZoneHVACPackagedTerminalAirConditioner 14 Cooling Coil Outlet Node, !- Air Inlet Node Name
  ZoneHVACPackagedTerminalAirConditioner 14 Heating Coil Outlet Node; !- Air Outlet Node Name

Coil:Cooling:DX:SingleSpeed,
  CoilCoolingDXSingleSpeed_PTAC 14 42kBtu/hr 9.5EER, !- Name
  Always On Discrete,                     !- Availability Schedule Name
  Autosize,                               !- Gross Rated Total Cooling Capacity {W}
  Autosize,                               !- Gross Rated Sensible Heat Ratio
  3.30019905299558,                       !- Gross Rated Cooling COP {W/W}
  Autosize,                               !- Rated Air Flow Rate {m3/s}
  773.3,                                  !- Rated Evaporator Fan Power Per Volume Flow Rate 2017 {W/(m3/s)}
  934.4,                                  !- Rated Evaporator Fan Power Per Volume Flow Rate 2023 {W/(m3/s)}
  ZoneHVACPackagedTerminalAirConditioner 14 Mixed Air Node, !- Air Inlet Node Name
  ZoneHVACPackagedTerminalAirConditioner 14 Cooling Coil Outlet Node, !- Air Outlet Node Name
  DXCOOL-NECB2011-REF-CAPFT,              !- Total Cooling Capacity Function of Temperature Curve Name
  DXCOOL-NECB2011-REF-CAPFFLOW,           !- Total Cooling Capacity Function of Flow Fraction Curve Name
  DXCOOL-NECB2011-REF-COOLEIRFT,          !- Energy Input Ratio Function of Temperature Curve Name
  DXCOOL-NECB2011-REF-COOLEIRFFLOW,       !- Energy Input Ratio Function of Flow Fraction Curve Name
  DXCOOL-NECB2011-REF-COOLPLFFPLR,        !- Part Load Fraction Correlation Curve Name
  -25,                                    !- Minimum Outdoor Dry-Bulb Temperature for Compressor Operation {C}
  0,                                      !- Nominal Time for Condensate Removal to Begin {s}
  0,                                      !- Ratio of Initial Moisture Evaporation Rate and Steady State Latent Capacity {dimensionless}
  0,                                      !- Maximum Cycling Rate {cycles/hr}
  0,                                      !- Latent Capacity Time Constant {s}
  ,                                       !- Condenser Air Inlet Node Name
  AirCooled,                              !- Condenser Type
  0.9,                                    !- Evaporative Condenser Effectiveness {dimensionless}
  Autosize,                               !- Evaporative Condenser Air Flow Rate {m3/s}
  Autosize,                               !- Evaporative Condenser Pump Rated Power Consumption {W}
  1e-06,                                  !- Crankcase Heater Capacity {W}
  ,                                       !- Crankcase Heater Capacity Function of Temperature Curve Name
  10,                                     !- Maximum Outdoor Dry-Bulb Temperature for Crankcase Heater Operation {C}
  ,                                       !- Supply Water Storage Tank Name
  ,                                       !- Condensate Collection Water Storage Tank Name
  0,                                      !- Basin Heater Capacity {W/K}
  2;                                      !- Basin Heater Setpoint Temperature {C}

ZoneHVAC:Baseboard:Convective:Electric,
  ZoneHVACBaseboardConvectiveElectric 14, !- Name
  Always On Discrete,                     !- Availability Schedule Name
  ,                                       !- Heating Design Capacity Method
  Autosize,                               !- Heating Design Capacity {W}
  ,                                       !- Heating Design Capacity Per Floor Area {W/m2}
  ,                                       !- Fraction of Autosized Heating Design Capacity
  1;                                      !- Efficiency

ZoneHVAC:EquipmentList,
  DU_BT=Space Function_ST=Dwelling units general_FL=Building Story 3_SCHG 11 Equipment List, !- Name
  SequentialLoad,                         !- Load Distribution Scheme
  ZoneHVAC:AirDistributionUnit,           !- Zone Equipment Object Type 1
  ADU Air Terminal Single Duct Constant Volume No Reheat 15, !- Zone Equipment Name 1
  1,                                      !- Zone Equipment Cooling Sequence 1
  1,                                      !- Zone Equipment Heating or No-Load Sequence 1
  ,                                       !- Zone Equipment Sequential Cooling Fraction Schedule Name 1
  ,                                       !- Zone Equipment Sequential Heating Fraction Schedule Name 1
  ZoneHVAC:PackagedTerminalAirConditioner, !- Zone Equipment Object Type 2
  ZoneHVACPackagedTerminalAirConditioner 14, !- Zone Equipment Name 2
  2,                                      !- Zone Equipment Cooling Sequence 2
  2,                                      !- Zone Equipment Heating or No-Load Sequence 2
  ,                                       !- Zone Equipment Sequential Cooling Fraction Schedule Name 2
  ,                                       !- Zone Equipment Sequential Heating Fraction Schedule Name 2
  ZoneHVAC:Baseboard:Convective:Electric, !- Zone Equipment Object Type 3
  ZoneHVACBaseboardConvectiveElectric 14, !- Zone Equipment Name 3
  3,                                      !- Zone Equipment Cooling Sequence 3
  3,                                      !- Zone Equipment Heating or No-Load Sequence 3
  ,                                       !- Zone Equipment Sequential Cooling Fraction Schedule Name 3
  ;                                       !- Zone Equipment Sequential Heating Fraction Schedule Name 3

Sizing:Zone,
  DU_BT=Space Function_ST=Dwelling units general_FL=Building Story 3_SCHG 11, !- Zone or ZoneList Name
  TemperatureDifference,                  !- Zone Cooling Design Supply Air Temperature Input Method
  13,                                     !- Zone Cooling Design Supply Air Temperature {C}
  11,                                     !- Zone Cooling Design Supply Air Temperature Difference {deltaC}
  TemperatureDifference,                  !- Zone Heating Design Supply Air Temperature Input Method
  43,                                     !- Zone Heating Design Supply Air Temperature {C}
  21,                                     !- Zone Heating Design Supply Air Temperature Difference {deltaC}
  0.0085,                                 !- Zone Cooling Design Supply Air Humidity Ratio {kgWater/kgDryAir}
  0.008,                                  !- Zone Heating Design Supply Air Humidity Ratio {kgWater/kgDryAir}
  DU_BT=Space Function_ST=Dwelling units general_FL=Building Story 3_SCHG 11 DSOA Space List, !- Design Specification Outdoor Air Object Name
  1.3,                                    !- Zone Heating Sizing Factor
  1.1,                                    !- Zone Cooling Sizing Factor
  DesignDay,                              !- Cooling Design Air Flow Method
  0,                                      !- Cooling Design Air Flow Rate {m3/s}
  0.000762,                               !- Cooling Minimum Air Flow per Zone Floor Area {m3/s-m2}
  0,                                      !- Cooling Minimum Air Flow {m3/s}
  0,                                      !- Cooling Minimum Air Flow Fraction
  DesignDay,                              !- Heating Design Air Flow Method
  0,                                      !- Heating Design Air Flow Rate {m3/s}
  0.002032,                               !- Heating Maximum Air Flow per Zone Floor Area {m3/s-m2}
  0.1415762,                              !- Heating Maximum Air Flow {m3/s}
  0.3,                                    !- Heating Maximum Air Flow Fraction
  ,                                       !- Design Specification Zone Air Distribution Object Name
  No,                                     !- Account for Dedicated Outdoor Air System
  ,                                       !- Dedicated Outdoor Air System Control Strategy
  ,                                       !- Dedicated Outdoor Air Low Setpoint Temperature for Design {C}
  ,                                       !- Dedicated Outdoor Air High Setpoint Temperature for Design {C}
  Sensible Load Only No Latent Load,      !- Zone Load Sizing Method
  HumidityRatioDifference,                !- Zone Latent Cooling Design Supply Air Humidity Ratio Input Method
  ,                                       !- Zone Dehumidification Design Supply Air Humidity Ratio {kgWater/kgDryAir}
  0.005,                                  !- Zone Cooling Design Supply Air Humidity Ratio Difference {kgWater/kgDryAir}
  HumidityRatioDifference,                !- Zone Latent Heating Design Supply Air Humidity Ratio Input Method
  ,                                       !- Zone Humidification Design Supply Air Humidity Ratio {kgWater/kgDryAir}
  0.005,                                  !- Zone Humidification Design Supply Air Humidity Ratio Difference {kgWater/kgDryAir}
  ,                                       !- Zone Humidistat Dehumidification Set Point Schedule Name
  ,                                       !- Zone Humidistat Humidification Set Point Schedule Name
  Coincident;                             !- Type of Space Sum to Use

DesignSpecification:OutdoorAir:SpaceList,
  DU_BT=Space Function_ST=Dwelling units general_FL=Building Story 3_SCHG 11 DSOA Space List, !- Name
  T N1 Apartment,                         !- Space Name 1
  Space Function Dwelling units general Ventilation; !- Space Design Specification Outdoor Air Object Name 1

Zone,
  DU_BT=Space Function_ST=Dwelling units general_FL=Building Story 3_SCHG 12, !- Name
  0,                                      !- Direction of Relative North {deg}
  0,                                      !- X Origin {m}
  9.29594664423115,                       !- Y Origin {m}
  6.09570235876431,                       !- Z Origin {m}
  ,                                       !- Type
  1,                                      !- Multiplier
  ,                                       !- Ceiling Height {m}
  ,                                       !- Volume {m3}
  ,                                       !- Floor Area {m2}
  ,                                       !- Zone Inside Convection Algorithm
  ,                                       !- Zone Outside Convection Algorithm
  Yes;                                    !- Part of Total Floor Area

Space,
  T NW Apartment,                         !- Name
  DU_BT=Space Function_ST=Dwelling units general_FL=Building Story 3_SCHG 12, !- Zone Name
  ,                                       !- Ceiling Height {m}
  268.97063879463,                        !- Volume {m3}
  ,                                       !- Floor Area {m2}
  Space Function Dwelling units general;  !- Space Type

BuildingSurface:Detailed,
  t EIWALL NWA,                           !- Name
  Wall,                                   !- Surface Type
  BTAP-Int-Wall,                          !- Construction Name
  DU_BT=Space Function_ST=Dwelling units general_FL=Building Story 3_SCHG 12, !- Zone Name
  T NW Apartment,                         !- Space Name
  Surface,                                !- Outside Boundary Condition
  t EIWALL NWA Reversed,                  !- Outside Boundary Condition Object
  NoSun,                                  !- Sun Exposure
  NoWind,                                 !- Wind Exposure
  ,                                       !- View Factor to Ground
  ,                                       !- Number of Vertices
  11.581835, 0, 3.047851,                 !- X,Y,Z Vertex 1 {m}
  11.581835, 0, 0,                        !- X,Y,Z Vertex 2 {m}
  11.581835, 7.619628, 0,                 !- X,Y,Z Vertex 3 {m}
  11.581835, 7.619628, 3.047851;          !- X,Y,Z Vertex 4 {m}

BuildingSurface:Detailed,
  t GFloor NWA,                           !- Name
  Floor,                                  !- Surface Type
  BTAP-Int-Wall,                          !- Construction Name
  DU_BT=Space Function_ST=Dwelling units general_FL=Building Story 3_SCHG 12, !- Zone Name
  T NW Apartment,                         !- Space Name
  Adiabatic,                              !- Outside Boundary Condition
  ,                                       !- Outside Boundary Condition Object
  NoSun,                                  !- Sun Exposure
  NoWind,                                 !- Wind Exposure
  ,                                       !- View Factor to Ground
  ,                                       !- Number of Vertices
  11.581835, 7.619628, 0,                 !- X,Y,Z Vertex 1 {m}
  11.581835, 0, 0,                        !- X,Y,Z Vertex 2 {m}
  0, 0, 0,                                !- X,Y,Z Vertex 3 {m}
  0, 7.619628, 0;                         !- X,Y,Z Vertex 4 {m}

BuildingSurface:Detailed,
  t NWall NWA,                            !- Name
  Wall,                                   !- Surface Type
  BTAP-Ext-Wall-Mass:U-0.29,              !- Construction Name
  DU_BT=Space Function_ST=Dwelling units general_FL=Building Story 3_SCHG 12, !- Zone Name
  T NW Apartment,                         !- Space Name
  Outdoors,                               !- Outside Boundary Condition
  ,                                       !- Outside Boundary Condition Object
  SunExposed,                             !- Sun Exposure
  WindExposed,                            !- Wind Exposure
  ,                                       !- View Factor to Ground
  ,                                       !- Number of Vertices
  11.581835, 7.619628, 3.047851,          !- X,Y,Z Vertex 1 {m}
  11.581835, 7.619628, 0,                 !- X,Y,Z Vertex 2 {m}
  0, 7.619628, 0,                         !- X,Y,Z Vertex 3 {m}
  0, 7.619628, 3.047851;                  !- X,Y,Z Vertex 4 {m}

FenestrationSurface:Detailed,
  t NWall NWA_FixedWindow,                !- Name
  Window,                                 !- Surface Type
  BTAP-Ext-FixedWindow:U=0.280 SHGC=0.600, !- Construction Name
  t NWall NWA,                            !- Building Surface Name
  ,                                       !- Outside Boundary Condition Object
  ,                                       !- View Factor to Ground
  ,                                       !- Frame and Divider Name
  ,                                       !- Multiplier
  ,                                       !- Number of Vertices
  11.556435, 7.619628, 1.78140567865181,  !- X,Y,Z Vertex 1 {m}
  11.556435, 7.619628, 0.762,             !- X,Y,Z Vertex 2 {m}
  0.0254000000000012, 7.619628, 0.762,    !- X,Y,Z Vertex 3 {m}
  0.0254000000000012, 7.619628, 1.78140567865181; !- X,Y,Z Vertex 4 {m}

BuildingSurface:Detailed,
  t Roof NWA,                             !- Name
  Roof,                                   !- Surface Type
  BTAP-Ext-Roof-Metal:U-0.2,              !- Construction Name
  DU_BT=Space Function_ST=Dwelling units general_FL=Building Story 3_SCHG 12, !- Zone Name
  T NW Apartment,                         !- Space Name
  Outdoors,                               !- Outside Boundary Condition
  ,                                       !- Outside Boundary Condition Object
  SunExposed,                             !- Sun Exposure
  WindExposed,                            !- Wind Exposure
  ,                                       !- View Factor to Ground
  ,                                       !- Number of Vertices
  11.581835, 0, 3.047851,                 !- X,Y,Z Vertex 1 {m}
  11.581835, 7.619628, 3.047851,          !- X,Y,Z Vertex 2 {m}
  0, 7.619628, 3.047851,                  !- X,Y,Z Vertex 3 {m}
  0, 0, 3.047851;                         !- X,Y,Z Vertex 4 {m}

FenestrationSurface:Detailed,
  t Roof NWA_Skylight,                    !- Name
  Window,                                 !- Surface Type
  BTAP-Ext-Skylights:U=0.241 SHGC=0.600,  !- Construction Name
  t Roof NWA,                             !- Building Surface Name
  ,                                       !- Outside Boundary Condition Object
  ,                                       !- View Factor to Ground
  ,                                       !- Frame and Divider Name
  1,                                      !- Multiplier
  ,                                       !- Number of Vertices
  6.60987690670837, 3.27102493710811, 3.047851, !- X,Y,Z Vertex 1 {m}
  6.60987690670837, 4.34860306289189, 3.047851, !- X,Y,Z Vertex 2 {m}
  4.97195809329163, 4.34860306289189, 3.047851, !- X,Y,Z Vertex 3 {m}
  4.97195809329163, 3.27102493710811, 3.047851; !- X,Y,Z Vertex 4 {m}

BuildingSurface:Detailed,
  t SIWall NWA,                           !- Name
  Wall,                                   !- Surface Type
  BTAP-Int-Wall,                          !- Construction Name
  DU_BT=Space Function_ST=Dwelling units general_FL=Building Story 3_SCHG 12, !- Zone Name
  T NW Apartment,                         !- Space Name
  Surface,                                !- Outside Boundary Condition
  t SIWall NWA Reversed,                  !- Outside Boundary Condition Object
  NoSun,                                  !- Sun Exposure
  NoWind,                                 !- Wind Exposure
  ,                                       !- View Factor to Ground
  ,                                       !- Number of Vertices
  0, 0, 3.047851,                         !- X,Y,Z Vertex 1 {m}
  0, 0, 0,                                !- X,Y,Z Vertex 2 {m}
  11.581835, 0, 0,                        !- X,Y,Z Vertex 3 {m}
  11.581835, 0, 3.047851;                 !- X,Y,Z Vertex 4 {m}

BuildingSurface:Detailed,
  t WWall NWA,                            !- Name
  Wall,                                   !- Surface Type
  BTAP-Ext-Wall-Mass:U-0.29,              !- Construction Name
  DU_BT=Space Function_ST=Dwelling units general_FL=Building Story 3_SCHG 12, !- Zone Name
  T NW Apartment,                         !- Space Name
  Outdoors,                               !- Outside Boundary Condition
  ,                                       !- Outside Boundary Condition Object
  SunExposed,                             !- Sun Exposure
  WindExposed,                            !- Wind Exposure
  ,                                       !- View Factor to Ground
  ,                                       !- Number of Vertices
  0, 7.619628, 3.047851,                  !- X,Y,Z Vertex 1 {m}
  0, 7.619628, 0,                         !- X,Y,Z Vertex 2 {m}
  0, 0, 0,                                !- X,Y,Z Vertex 3 {m}
  0, 0, 3.047851;                         !- X,Y,Z Vertex 4 {m}

FenestrationSurface:Detailed,
  t WWall NWA_FixedWindow,                !- Name
  Window,                                 !- Surface Type
  BTAP-Ext-FixedWindow:U=0.280 SHGC=0.600, !- Construction Name
  t WWall NWA,                            !- Building Surface Name
  ,                                       !- Outside Boundary Condition Object
  ,                                       !- View Factor to Ground
  ,                                       !- Frame and Divider Name
  ,                                       !- Multiplier
  ,                                       !- Number of Vertices
  0, 7.594228, 1.78374635793937,          !- X,Y,Z Vertex 1 {m}
  0, 7.594228, 0.762,                     !- X,Y,Z Vertex 2 {m}
  0, 0.0253999999999994, 0.762,           !- X,Y,Z Vertex 3 {m}
  0, 0.0253999999999994, 1.78374635793937; !- X,Y,Z Vertex 4 {m}

ZoneInfiltration:DesignFlowRate,
  T NW Apartment Infiltration,            !- Name
  T NW Apartment,                         !- Zone or ZoneList or Space or SpaceList Name
  Always On Discrete,                     !- Schedule Name
  Flow/ExteriorArea,                      !- Design Flow Rate Calculation Method
  ,                                       !- Design Flow Rate {m3/s}
  ,                                       !- Flow Rate per Floor Area {m3/s-m2}
  0.00447586595596712,                    !- Flow Rate per Exterior Surface Area {m3/s-m2}
  ,                                       !- Air Changes per Hour {1/hr}
  0,                                      !- Constant Term Coefficient
  0,                                      !- Temperature Term Coefficient
  0.224,                                  !- Velocity Term Coefficient
  0;                                      !- Velocity Squared Term Coefficient

ZoneControl:Thermostat,
  DU_BT=Space Function_ST=Dwelling units general_FL=Building Story 3_SCHG 12 Thermostat, !- Name
  DU_BT=Space Function_ST=Dwelling units general_FL=Building Story 3_SCHG 12, !- Zone or ZoneList Name
  DU_BT=Space Function_ST=Dwelling units general_FL=Building Story 3_SCHG 12 Thermostat Schedule, !- Control Type Schedule Name
  ThermostatSetpoint:DualSetpoint,        !- Control 1 Object Type
  Space Function Dwelling units general Thermostat 51, !- Control 1 Name
  ,                                       !- Control 2 Object Type
  ,                                       !- Control 2 Name
  ,                                       !- Control 3 Object Type
  ,                                       !- Control 3 Name
  ,                                       !- Control 4 Object Type
  ,                                       !- Control 4 Name
  0;                                      !- Temperature Difference Between Cutout And Setpoint {deltaC}

Schedule:Compact,
  DU_BT=Space Function_ST=Dwelling units general_FL=Building Story 3_SCHG 12 Thermostat Schedule, !- Name
  DU_BT=Space Function_ST=Dwelling units general_FL=Building Story 3_SCHG 12 Thermostat Schedule Type Limits, !- Schedule Type Limits Name
  Through: 12/31,                         !- Field 1
  For: AllDays,                           !- Field 2
  Until: 24:00,                           !- Field 3
  4;                                      !- Field 4

ScheduleTypeLimits,
  DU_BT=Space Function_ST=Dwelling units general_FL=Building Story 3_SCHG 12 Thermostat Schedule Type Limits, !- Name
  0,                                      !- Lower Limit Value {BasedOnField A3}
  4,                                      !- Upper Limit Value {BasedOnField A3}
  DISCRETE;                               !- Numeric Type

ThermostatSetpoint:DualSetpoint,
  Space Function Dwelling units general Thermostat 51, !- Name
  NECB-G-Thermostat Setpoint-Heating,     !- Heating Setpoint Temperature Schedule Name
  NECB-G-Thermostat Setpoint-Cooling;     !- Cooling Setpoint Temperature Schedule Name

ZoneHVAC:EquipmentConnections,
  DU_BT=Space Function_ST=Dwelling units general_FL=Building Story 3_SCHG 12, !- Zone Name
  DU_BT=Space Function_ST=Dwelling units general_FL=Building Story 3_SCHG 12 Equipment List, !- Zone Conditioning Equipment List Name
  DU_BT=Space Function_ST=Dwelling units general_FL=Building Story 3_SCHG 12 Inlet Node List, !- Zone Air Inlet Node or NodeList Name
  DU_BT=Space Function_ST=Dwelling units general_FL=Building Story 3_SCHG 12 Exhaust Node List, !- Zone Air Exhaust Node or NodeList Name
  DU_BT=Space Function_ST=Dwelling units general_FL=Building Story 3_SCHG 12 Zone Air Node, !- Zone Air Node Name
  DU_BT=Space Function_ST=Dwelling units general_FL=Building Story 3_SCHG 12 Return Node List; !- Zone Return Air Node or NodeList Name

NodeList,
  DU_BT=Space Function_ST=Dwelling units general_FL=Building Story 3_SCHG 12 Inlet Node List, !- Name
  Air Terminal Single Duct Constant Volume No Reheat 16 Outlet Air Node, !- Node Name 1
  ZoneHVACPackagedTerminalAirConditioner 15 Outlet Air Node; !- Node Name 2

NodeList,
  DU_BT=Space Function_ST=Dwelling units general_FL=Building Story 3_SCHG 12 Exhaust Node List, !- Name
  ZoneHVACPackagedTerminalAirConditioner 15 Inlet Air Node; !- Node Name 1

NodeList,
  DU_BT=Space Function_ST=Dwelling units general_FL=Building Story 3_SCHG 12 Return Node List, !- Name
  DU_BT=Space Function_ST=Dwelling units general_FL=Building Story 3_SCHG 12 Return Air Node; !- Node Name 1

AirTerminal:SingleDuct:ConstantVolume:NoReheat,
  Air Terminal Single Duct Constant Volume No Reheat 16, !- Name
  Always On Discrete,                     !- Availability Schedule Name
  Air Terminal Single Duct Constant Volume No Reheat 16 Inlet Air Node, !- Air Inlet Node Name
  Air Terminal Single Duct Constant Volume No Reheat 16 Outlet Air Node, !- Air Outlet Node Name
  AutoSize;                               !- Maximum Air Flow Rate {m3/s}

ZoneHVAC:AirDistributionUnit,
  ADU Air Terminal Single Duct Constant Volume No Reheat 16, !- Name
  Air Terminal Single Duct Constant Volume No Reheat 16 Outlet Air Node, !- Air Distribution Unit Outlet Node Name
  AirTerminal:SingleDuct:ConstantVolume:NoReheat, !- Air Terminal Object Type
  Air Terminal Single Duct Constant Volume No Reheat 16; !- Air Terminal Name

ZoneHVAC:PackagedTerminalAirConditioner,
  ZoneHVACPackagedTerminalAirConditioner 15, !- Name
  Always On Discrete,                     !- Availability Schedule Name
  ZoneHVACPackagedTerminalAirConditioner 15 Inlet Air Node, !- Air Inlet Node Name
  ZoneHVACPackagedTerminalAirConditioner 15 Outlet Air Node, !- Air Outlet Node Name
  OutdoorAir:Mixer,                       !- Outdoor Air Mixer Object Type
  ZoneHVACPackagedTerminalAirConditioner 15 OA Mixer, !- Outdoor Air Mixer Name
  Autosize,                               !- Cooling Supply Air Flow Rate {m3/s}
  Autosize,                               !- Heating Supply Air Flow Rate {m3/s}
  Autosize,                               !- No Load Supply Air Flow Rate {m3/s}
  Yes,                                    !- No Load Supply Air Flow Rate Control Set To Low Speed
  1e-06,                                  !- Cooling Outdoor Air Flow Rate {m3/s}
  1e-06,                                  !- Heating Outdoor Air Flow Rate {m3/s}
  1e-06,                                  !- No Load Outdoor Air Flow Rate {m3/s}
  Fan:OnOff,                              !- Supply Air Fan Object Type
  FanOnOff 15,                            !- Supply Air Fan Name
  Coil:Heating:Electric,                  !- Heating Coil Object Type
  CoilHeatingElectric 16,                 !- Heating Coil Name
  Coil:Cooling:DX:SingleSpeed,            !- Cooling Coil Object Type
  CoilCoolingDXSingleSpeed_PTAC 15 50kBtu/hr 9.5EER, !- Cooling Coil Name
  DrawThrough,                            !- Fan Placement
  Always Off Discrete;                    !- Supply Air Fan Operating Mode Schedule Name

OutdoorAir:Mixer,
  ZoneHVACPackagedTerminalAirConditioner 15 OA Mixer, !- Name
  ZoneHVACPackagedTerminalAirConditioner 15 Mixed Air Node, !- Mixed Air Node Name
  ZoneHVACPackagedTerminalAirConditioner 15 OA Node, !- Outdoor Air Stream Node Name
  ZoneHVACPackagedTerminalAirConditioner 15 Relief Air Node, !- Relief Air Stream Node Name
  ZoneHVACPackagedTerminalAirConditioner 15 Inlet Air Node; !- Return Air Stream Node Name

OutdoorAir:NodeList,
  ZoneHVACPackagedTerminalAirConditioner 15 OA Node; !- Node or NodeList Name 1

Fan:OnOff,
  FanOnOff 15,                            !- Name
  Always On Discrete,                     !- Availability Schedule Name
  0.39975,                                !- Fan Total Efficiency
  331.2882503,                            !- Pressure Rise {Pa}
  Autosize,                               !- Maximum Flow Rate {m3/s}
  0.615,                                  !- Motor Efficiency
  1,                                      !- Motor In Airstream Fraction
  ZoneHVACPackagedTerminalAirConditioner 15 Heating Coil Outlet Node, !- Air Inlet Node Name
  ZoneHVACPackagedTerminalAirConditioner 15 Outlet Air Node, !- Air Outlet Node Name
  Fan On Off Power Curve 15,              !- Fan Power Ratio Function of Speed Ratio Curve Name
  Fan On Off Efficiency Curve 15,         !- Fan Efficiency Ratio Function of Speed Ratio Curve Name
  General;                                !- End-Use Subcategory

Curve:Exponent,
  Fan On Off Power Curve 15,              !- Name
  1,                                      !- Coefficient1 Constant
  0,                                      !- Coefficient2 Constant
  0,                                      !- Coefficient3 Constant
  0,                                      !- Minimum Value of x {BasedOnField A2}
  1;                                      !- Maximum Value of x {BasedOnField A2}

Curve:Cubic,
  Fan On Off Efficiency Curve 15,         !- Name
  1,                                      !- Coefficient1 Constant
  0,                                      !- Coefficient2 x
  0,                                      !- Coefficient3 x**2
  0,                                      !- Coefficient4 x**3
  0,                                      !- Minimum Value of x {BasedOnField A2}
  1;                                      !- Maximum Value of x {BasedOnField A2}

Coil:Heating:Electric,
  CoilHeatingElectric 16,                 !- Name
  Always Off Discrete,                    !- Availability Schedule Name
  1,                                      !- Efficiency
  Autosize,                               !- Nominal Capacity {W}
  ZoneHVACPackagedTerminalAirConditioner 15 Cooling Coil Outlet Node, !- Air Inlet Node Name
  ZoneHVACPackagedTerminalAirConditioner 15 Heating Coil Outlet Node; !- Air Outlet Node Name

Coil:Cooling:DX:SingleSpeed,
  CoilCoolingDXSingleSpeed_PTAC 15 50kBtu/hr 9.5EER, !- Name
  Always On Discrete,                     !- Availability Schedule Name
  Autosize,                               !- Gross Rated Total Cooling Capacity {W}
  Autosize,                               !- Gross Rated Sensible Heat Ratio
  3.30019905299558,                       !- Gross Rated Cooling COP {W/W}
  Autosize,                               !- Rated Air Flow Rate {m3/s}
  773.3,                                  !- Rated Evaporator Fan Power Per Volume Flow Rate 2017 {W/(m3/s)}
  934.4,                                  !- Rated Evaporator Fan Power Per Volume Flow Rate 2023 {W/(m3/s)}
  ZoneHVACPackagedTerminalAirConditioner 15 Mixed Air Node, !- Air Inlet Node Name
  ZoneHVACPackagedTerminalAirConditioner 15 Cooling Coil Outlet Node, !- Air Outlet Node Name
  DXCOOL-NECB2011-REF-CAPFT,              !- Total Cooling Capacity Function of Temperature Curve Name
  DXCOOL-NECB2011-REF-CAPFFLOW,           !- Total Cooling Capacity Function of Flow Fraction Curve Name
  DXCOOL-NECB2011-REF-COOLEIRFT,          !- Energy Input Ratio Function of Temperature Curve Name
  DXCOOL-NECB2011-REF-COOLEIRFFLOW,       !- Energy Input Ratio Function of Flow Fraction Curve Name
  DXCOOL-NECB2011-REF-COOLPLFFPLR,        !- Part Load Fraction Correlation Curve Name
  -25,                                    !- Minimum Outdoor Dry-Bulb Temperature for Compressor Operation {C}
  0,                                      !- Nominal Time for Condensate Removal to Begin {s}
  0,                                      !- Ratio of Initial Moisture Evaporation Rate and Steady State Latent Capacity {dimensionless}
  0,                                      !- Maximum Cycling Rate {cycles/hr}
  0,                                      !- Latent Capacity Time Constant {s}
  ,                                       !- Condenser Air Inlet Node Name
  AirCooled,                              !- Condenser Type
  0.9,                                    !- Evaporative Condenser Effectiveness {dimensionless}
  Autosize,                               !- Evaporative Condenser Air Flow Rate {m3/s}
  Autosize,                               !- Evaporative Condenser Pump Rated Power Consumption {W}
  1e-06,                                  !- Crankcase Heater Capacity {W}
  ,                                       !- Crankcase Heater Capacity Function of Temperature Curve Name
  10,                                     !- Maximum Outdoor Dry-Bulb Temperature for Crankcase Heater Operation {C}
  ,                                       !- Supply Water Storage Tank Name
  ,                                       !- Condensate Collection Water Storage Tank Name
  0,                                      !- Basin Heater Capacity {W/K}
  2;                                      !- Basin Heater Setpoint Temperature {C}

ZoneHVAC:Baseboard:Convective:Electric,
  ZoneHVACBaseboardConvectiveElectric 15, !- Name
  Always On Discrete,                     !- Availability Schedule Name
  ,                                       !- Heating Design Capacity Method
  Autosize,                               !- Heating Design Capacity {W}
  ,                                       !- Heating Design Capacity Per Floor Area {W/m2}
  ,                                       !- Fraction of Autosized Heating Design Capacity
  1;                                      !- Efficiency

ZoneHVAC:EquipmentList,
  DU_BT=Space Function_ST=Dwelling units general_FL=Building Story 3_SCHG 12 Equipment List, !- Name
  SequentialLoad,                         !- Load Distribution Scheme
  ZoneHVAC:AirDistributionUnit,           !- Zone Equipment Object Type 1
  ADU Air Terminal Single Duct Constant Volume No Reheat 16, !- Zone Equipment Name 1
  1,                                      !- Zone Equipment Cooling Sequence 1
  1,                                      !- Zone Equipment Heating or No-Load Sequence 1
  ,                                       !- Zone Equipment Sequential Cooling Fraction Schedule Name 1
  ,                                       !- Zone Equipment Sequential Heating Fraction Schedule Name 1
  ZoneHVAC:PackagedTerminalAirConditioner, !- Zone Equipment Object Type 2
  ZoneHVACPackagedTerminalAirConditioner 15, !- Zone Equipment Name 2
  2,                                      !- Zone Equipment Cooling Sequence 2
  2,                                      !- Zone Equipment Heating or No-Load Sequence 2
  ,                                       !- Zone Equipment Sequential Cooling Fraction Schedule Name 2
  ,                                       !- Zone Equipment Sequential Heating Fraction Schedule Name 2
  ZoneHVAC:Baseboard:Convective:Electric, !- Zone Equipment Object Type 3
  ZoneHVACBaseboardConvectiveElectric 15, !- Zone Equipment Name 3
  3,                                      !- Zone Equipment Cooling Sequence 3
  3,                                      !- Zone Equipment Heating or No-Load Sequence 3
  ,                                       !- Zone Equipment Sequential Cooling Fraction Schedule Name 3
  ;                                       !- Zone Equipment Sequential Heating Fraction Schedule Name 3

Sizing:Zone,
  DU_BT=Space Function_ST=Dwelling units general_FL=Building Story 3_SCHG 12, !- Zone or ZoneList Name
  TemperatureDifference,                  !- Zone Cooling Design Supply Air Temperature Input Method
  13,                                     !- Zone Cooling Design Supply Air Temperature {C}
  11,                                     !- Zone Cooling Design Supply Air Temperature Difference {deltaC}
  TemperatureDifference,                  !- Zone Heating Design Supply Air Temperature Input Method
  43,                                     !- Zone Heating Design Supply Air Temperature {C}
  21,                                     !- Zone Heating Design Supply Air Temperature Difference {deltaC}
  0.0085,                                 !- Zone Cooling Design Supply Air Humidity Ratio {kgWater/kgDryAir}
  0.008,                                  !- Zone Heating Design Supply Air Humidity Ratio {kgWater/kgDryAir}
  DU_BT=Space Function_ST=Dwelling units general_FL=Building Story 3_SCHG 12 DSOA Space List, !- Design Specification Outdoor Air Object Name
  1.3,                                    !- Zone Heating Sizing Factor
  1.1,                                    !- Zone Cooling Sizing Factor
  DesignDay,                              !- Cooling Design Air Flow Method
  0,                                      !- Cooling Design Air Flow Rate {m3/s}
  0.000762,                               !- Cooling Minimum Air Flow per Zone Floor Area {m3/s-m2}
  0,                                      !- Cooling Minimum Air Flow {m3/s}
  0,                                      !- Cooling Minimum Air Flow Fraction
  DesignDay,                              !- Heating Design Air Flow Method
  0,                                      !- Heating Design Air Flow Rate {m3/s}
  0.002032,                               !- Heating Maximum Air Flow per Zone Floor Area {m3/s-m2}
  0.1415762,                              !- Heating Maximum Air Flow {m3/s}
  0.3,                                    !- Heating Maximum Air Flow Fraction
  ,                                       !- Design Specification Zone Air Distribution Object Name
  No,                                     !- Account for Dedicated Outdoor Air System
  ,                                       !- Dedicated Outdoor Air System Control Strategy
  ,                                       !- Dedicated Outdoor Air Low Setpoint Temperature for Design {C}
  ,                                       !- Dedicated Outdoor Air High Setpoint Temperature for Design {C}
  Sensible Load Only No Latent Load,      !- Zone Load Sizing Method
  HumidityRatioDifference,                !- Zone Latent Cooling Design Supply Air Humidity Ratio Input Method
  ,                                       !- Zone Dehumidification Design Supply Air Humidity Ratio {kgWater/kgDryAir}
  0.005,                                  !- Zone Cooling Design Supply Air Humidity Ratio Difference {kgWater/kgDryAir}
  HumidityRatioDifference,                !- Zone Latent Heating Design Supply Air Humidity Ratio Input Method
  ,                                       !- Zone Humidification Design Supply Air Humidity Ratio {kgWater/kgDryAir}
  0.005,                                  !- Zone Humidification Design Supply Air Humidity Ratio Difference {kgWater/kgDryAir}
  ,                                       !- Zone Humidistat Dehumidification Set Point Schedule Name
  ,                                       !- Zone Humidistat Humidification Set Point Schedule Name
  Coincident;                             !- Type of Space Sum to Use

DesignSpecification:OutdoorAir:SpaceList,
  DU_BT=Space Function_ST=Dwelling units general_FL=Building Story 3_SCHG 12 DSOA Space List, !- Name
  T NW Apartment,                         !- Space Name 1
  Space Function Dwelling units general Ventilation; !- Space Design Specification Outdoor Air Object Name 1

Zone,
  DU_BT=Space Function_ST=Dwelling units general_FL=Building Story 3_SCHG 8, !- Name
  0,                                      !- Direction of Relative North {deg}
  23.1636701633044,                       !- X Origin {m}
  0,                                      !- Y Origin {m}
  6.09570235876431,                       !- Z Origin {m}
  ,                                       !- Type
  1,                                      !- Multiplier
  ,                                       !- Ceiling Height {m}
  ,                                       !- Volume {m3}
  ,                                       !- Floor Area {m2}
  ,                                       !- Zone Inside Convection Algorithm
  ,                                       !- Zone Outside Convection Algorithm
  Yes;                                    !- Part of Total Floor Area

Space,
  T SE Apartment,                         !- Name
  DU_BT=Space Function_ST=Dwelling units general_FL=Building Story 3_SCHG 8, !- Zone Name
  ,                                       !- Ceiling Height {m}
  268.97063879463,                        !- Volume {m3}
  ,                                       !- Floor Area {m2}
  Space Function Dwelling units general;  !- Space Type

BuildingSurface:Detailed,
  t EIWALL S2A Reversed,                  !- Name
  Wall,                                   !- Surface Type
  BTAP-Int-Wall,                          !- Construction Name
  DU_BT=Space Function_ST=Dwelling units general_FL=Building Story 3_SCHG 8, !- Zone Name
  T SE Apartment,                         !- Space Name
  Surface,                                !- Outside Boundary Condition
  t EIWALL S1A,                           !- Outside Boundary Condition Object
  NoSun,                                  !- Sun Exposure
  NoWind,                                 !- Wind Exposure
  ,                                       !- View Factor to Ground
  ,                                       !- Number of Vertices
  0, 7.619628, 3.047851,                  !- X,Y,Z Vertex 1 {m}
  0, 7.619628, 0,                         !- X,Y,Z Vertex 2 {m}
  0, 0, 0,                                !- X,Y,Z Vertex 3 {m}
  0, 0, 3.047851;                         !- X,Y,Z Vertex 4 {m}

BuildingSurface:Detailed,
  t EWall SEA,                            !- Name
  Wall,                                   !- Surface Type
  BTAP-Ext-Wall-Mass:U-0.29,              !- Construction Name
  DU_BT=Space Function_ST=Dwelling units general_FL=Building Story 3_SCHG 8, !- Zone Name
  T SE Apartment,                         !- Space Name
  Outdoors,                               !- Outside Boundary Condition
  ,                                       !- Outside Boundary Condition Object
  SunExposed,                             !- Sun Exposure
  WindExposed,                            !- Wind Exposure
  ,                                       !- View Factor to Ground
  ,                                       !- Number of Vertices
  11.581835, 0, 3.047851,                 !- X,Y,Z Vertex 1 {m}
  11.581835, 0, 0,                        !- X,Y,Z Vertex 2 {m}
  11.581835, 7.619628, 0,                 !- X,Y,Z Vertex 3 {m}
  11.581835, 7.619628, 3.047851;          !- X,Y,Z Vertex 4 {m}

FenestrationSurface:Detailed,
  t EWall SEA_FixedWindow,                !- Name
  Window,                                 !- Surface Type
  BTAP-Ext-FixedWindow:U=0.280 SHGC=0.600, !- Construction Name
  t EWall SEA,                            !- Building Surface Name
  ,                                       !- Outside Boundary Condition Object
  ,                                       !- View Factor to Ground
  ,                                       !- Frame and Divider Name
  ,                                       !- Multiplier
  ,                                       !- Number of Vertices
  11.581835, 0.0254, 1.78374635793937,    !- X,Y,Z Vertex 1 {m}
  11.581835, 0.0254, 0.762,               !- X,Y,Z Vertex 2 {m}
  11.581835, 7.594228, 0.762,             !- X,Y,Z Vertex 3 {m}
  11.581835, 7.594228, 1.78374635793937;  !- X,Y,Z Vertex 4 {m}

BuildingSurface:Detailed,
  t GFloor SEA,                           !- Name
  Floor,                                  !- Surface Type
  BTAP-Int-Wall,                          !- Construction Name
  DU_BT=Space Function_ST=Dwelling units general_FL=Building Story 3_SCHG 8, !- Zone Name
  T SE Apartment,                         !- Space Name
  Adiabatic,                              !- Outside Boundary Condition
  ,                                       !- Outside Boundary Condition Object
  NoSun,                                  !- Sun Exposure
  NoWind,                                 !- Wind Exposure
  ,                                       !- View Factor to Ground
  ,                                       !- Number of Vertices
  11.581835, 7.619628, 0,                 !- X,Y,Z Vertex 1 {m}
  11.581835, 0, 0,                        !- X,Y,Z Vertex 2 {m}
  0, 0, 0,                                !- X,Y,Z Vertex 3 {m}
  0, 7.619628, 0;                         !- X,Y,Z Vertex 4 {m}

BuildingSurface:Detailed,
  t NIWall SEA,                           !- Name
  Wall,                                   !- Surface Type
  BTAP-Int-Wall,                          !- Construction Name
  DU_BT=Space Function_ST=Dwelling units general_FL=Building Story 3_SCHG 8, !- Zone Name
  T SE Apartment,                         !- Space Name
  Surface,                                !- Outside Boundary Condition
  t NIWall SEA Reversed,                  !- Outside Boundary Condition Object
  NoSun,                                  !- Sun Exposure
  NoWind,                                 !- Wind Exposure
  ,                                       !- View Factor to Ground
  ,                                       !- Number of Vertices
  11.581835, 7.619628, 3.047851,          !- X,Y,Z Vertex 1 {m}
  11.581835, 7.619628, 0,                 !- X,Y,Z Vertex 2 {m}
  0, 7.619628, 0,                         !- X,Y,Z Vertex 3 {m}
  0, 7.619628, 3.047851;                  !- X,Y,Z Vertex 4 {m}

BuildingSurface:Detailed,
  t Roof SEA,                             !- Name
  Roof,                                   !- Surface Type
  BTAP-Ext-Roof-Metal:U-0.2,              !- Construction Name
  DU_BT=Space Function_ST=Dwelling units general_FL=Building Story 3_SCHG 8, !- Zone Name
  T SE Apartment,                         !- Space Name
  Outdoors,                               !- Outside Boundary Condition
  ,                                       !- Outside Boundary Condition Object
  SunExposed,                             !- Sun Exposure
  WindExposed,                            !- Wind Exposure
  ,                                       !- View Factor to Ground
  ,                                       !- Number of Vertices
  11.581835, 0, 3.047851,                 !- X,Y,Z Vertex 1 {m}
  11.581835, 7.619628, 3.047851,          !- X,Y,Z Vertex 2 {m}
  0, 7.619628, 3.047851,                  !- X,Y,Z Vertex 3 {m}
  0, 0, 3.047851;                         !- X,Y,Z Vertex 4 {m}

FenestrationSurface:Detailed,
  t Roof SEA_Skylight,                    !- Name
  Window,                                 !- Surface Type
  BTAP-Ext-Skylights:U=0.241 SHGC=0.600,  !- Construction Name
  t Roof SEA,                             !- Building Surface Name
  ,                                       !- Outside Boundary Condition Object
  ,                                       !- View Factor to Ground
  ,                                       !- Frame and Divider Name
  1,                                      !- Multiplier
  ,                                       !- Number of Vertices
  6.60987690670837, 3.27102493710811, 3.047851, !- X,Y,Z Vertex 1 {m}
  6.60987690670837, 4.34860306289189, 3.047851, !- X,Y,Z Vertex 2 {m}
  4.97195809329163, 4.34860306289189, 3.047851, !- X,Y,Z Vertex 3 {m}
  4.97195809329163, 3.27102493710811, 3.047851; !- X,Y,Z Vertex 4 {m}

BuildingSurface:Detailed,
  t SWall SEA,                            !- Name
  Wall,                                   !- Surface Type
  BTAP-Ext-Wall-Mass:U-0.29,              !- Construction Name
  DU_BT=Space Function_ST=Dwelling units general_FL=Building Story 3_SCHG 8, !- Zone Name
  T SE Apartment,                         !- Space Name
  Outdoors,                               !- Outside Boundary Condition
  ,                                       !- Outside Boundary Condition Object
  SunExposed,                             !- Sun Exposure
  WindExposed,                            !- Wind Exposure
  ,                                       !- View Factor to Ground
  ,                                       !- Number of Vertices
  0, 0, 3.047851,                         !- X,Y,Z Vertex 1 {m}
  0, 0, 0,                                !- X,Y,Z Vertex 2 {m}
  11.581835, 0, 0,                        !- X,Y,Z Vertex 3 {m}
  11.581835, 0, 3.047851;                 !- X,Y,Z Vertex 4 {m}

FenestrationSurface:Detailed,
  t SWall SEA_FixedWindow,                !- Name
  Window,                                 !- Surface Type
  BTAP-Ext-FixedWindow:U=0.280 SHGC=0.600, !- Construction Name
  t SWall SEA,                            !- Building Surface Name
  ,                                       !- Outside Boundary Condition Object
  ,                                       !- View Factor to Ground
  ,                                       !- Frame and Divider Name
  ,                                       !- Multiplier
  ,                                       !- Number of Vertices
  0.0254, 0, 1.78140567865181,            !- X,Y,Z Vertex 1 {m}
  0.0254, 0, 0.762,                       !- X,Y,Z Vertex 2 {m}
  11.556435, 0, 0.762,                    !- X,Y,Z Vertex 3 {m}
  11.556435, 0, 1.78140567865181;         !- X,Y,Z Vertex 4 {m}

ZoneInfiltration:DesignFlowRate,
  T SE Apartment Infiltration,            !- Name
  T SE Apartment,                         !- Zone or ZoneList or Space or SpaceList Name
  Always On Discrete,                     !- Schedule Name
  Flow/ExteriorArea,                      !- Design Flow Rate Calculation Method
  ,                                       !- Design Flow Rate {m3/s}
  ,                                       !- Flow Rate per Floor Area {m3/s-m2}
  0.00447586595596712,                    !- Flow Rate per Exterior Surface Area {m3/s-m2}
  ,                                       !- Air Changes per Hour {1/hr}
  0,                                      !- Constant Term Coefficient
  0,                                      !- Temperature Term Coefficient
  0.224,                                  !- Velocity Term Coefficient
  0;                                      !- Velocity Squared Term Coefficient

ZoneControl:Thermostat,
  DU_BT=Space Function_ST=Dwelling units general_FL=Building Story 3_SCHG 8 Thermostat, !- Name
  DU_BT=Space Function_ST=Dwelling units general_FL=Building Story 3_SCHG 8, !- Zone or ZoneList Name
  DU_BT=Space Function_ST=Dwelling units general_FL=Building Story 3_SCHG 8 Thermostat Schedule, !- Control Type Schedule Name
  ThermostatSetpoint:DualSetpoint,        !- Control 1 Object Type
  Space Function Dwelling units general Thermostat 41, !- Control 1 Name
  ,                                       !- Control 2 Object Type
  ,                                       !- Control 2 Name
  ,                                       !- Control 3 Object Type
  ,                                       !- Control 3 Name
  ,                                       !- Control 4 Object Type
  ,                                       !- Control 4 Name
  0;                                      !- Temperature Difference Between Cutout And Setpoint {deltaC}

Schedule:Compact,
  DU_BT=Space Function_ST=Dwelling units general_FL=Building Story 3_SCHG 8 Thermostat Schedule, !- Name
  DU_BT=Space Function_ST=Dwelling units general_FL=Building Story 3_SCHG 8 Thermostat Schedule Type Limits, !- Schedule Type Limits Name
  Through: 12/31,                         !- Field 1
  For: AllDays,                           !- Field 2
  Until: 24:00,                           !- Field 3
  4;                                      !- Field 4

ScheduleTypeLimits,
  DU_BT=Space Function_ST=Dwelling units general_FL=Building Story 3_SCHG 8 Thermostat Schedule Type Limits, !- Name
  0,                                      !- Lower Limit Value {BasedOnField A3}
  4,                                      !- Upper Limit Value {BasedOnField A3}
  DISCRETE;                               !- Numeric Type

ThermostatSetpoint:DualSetpoint,
  Space Function Dwelling units general Thermostat 41, !- Name
  NECB-G-Thermostat Setpoint-Heating,     !- Heating Setpoint Temperature Schedule Name
  NECB-G-Thermostat Setpoint-Cooling;     !- Cooling Setpoint Temperature Schedule Name

ZoneHVAC:EquipmentConnections,
  DU_BT=Space Function_ST=Dwelling units general_FL=Building Story 3_SCHG 8, !- Zone Name
  DU_BT=Space Function_ST=Dwelling units general_FL=Building Story 3_SCHG 8 Equipment List, !- Zone Conditioning Equipment List Name
  DU_BT=Space Function_ST=Dwelling units general_FL=Building Story 3_SCHG 8 Inlet Node List, !- Zone Air Inlet Node or NodeList Name
  DU_BT=Space Function_ST=Dwelling units general_FL=Building Story 3_SCHG 8 Exhaust Node List, !- Zone Air Exhaust Node or NodeList Name
  DU_BT=Space Function_ST=Dwelling units general_FL=Building Story 3_SCHG 8 Zone Air Node, !- Zone Air Node Name
  DU_BT=Space Function_ST=Dwelling units general_FL=Building Story 3_SCHG 8 Return Node List; !- Zone Return Air Node or NodeList Name

NodeList,
  DU_BT=Space Function_ST=Dwelling units general_FL=Building Story 3_SCHG 8 Inlet Node List, !- Name
  Air Terminal Single Duct Constant Volume No Reheat 17 Outlet Air Node, !- Node Name 1
  ZoneHVACPackagedTerminalAirConditioner 16 Outlet Air Node; !- Node Name 2

NodeList,
  DU_BT=Space Function_ST=Dwelling units general_FL=Building Story 3_SCHG 8 Exhaust Node List, !- Name
  ZoneHVACPackagedTerminalAirConditioner 16 Inlet Air Node; !- Node Name 1

NodeList,
  DU_BT=Space Function_ST=Dwelling units general_FL=Building Story 3_SCHG 8 Return Node List, !- Name
  DU_BT=Space Function_ST=Dwelling units general_FL=Building Story 3_SCHG 8 Return Air Node; !- Node Name 1

AirTerminal:SingleDuct:ConstantVolume:NoReheat,
  Air Terminal Single Duct Constant Volume No Reheat 17, !- Name
  Always On Discrete,                     !- Availability Schedule Name
  Air Terminal Single Duct Constant Volume No Reheat 17 Inlet Air Node, !- Air Inlet Node Name
  Air Terminal Single Duct Constant Volume No Reheat 17 Outlet Air Node, !- Air Outlet Node Name
  AutoSize;                               !- Maximum Air Flow Rate {m3/s}

ZoneHVAC:AirDistributionUnit,
  ADU Air Terminal Single Duct Constant Volume No Reheat 17, !- Name
  Air Terminal Single Duct Constant Volume No Reheat 17 Outlet Air Node, !- Air Distribution Unit Outlet Node Name
  AirTerminal:SingleDuct:ConstantVolume:NoReheat, !- Air Terminal Object Type
  Air Terminal Single Duct Constant Volume No Reheat 17; !- Air Terminal Name

ZoneHVAC:PackagedTerminalAirConditioner,
  ZoneHVACPackagedTerminalAirConditioner 16, !- Name
  Always On Discrete,                     !- Availability Schedule Name
  ZoneHVACPackagedTerminalAirConditioner 16 Inlet Air Node, !- Air Inlet Node Name
  ZoneHVACPackagedTerminalAirConditioner 16 Outlet Air Node, !- Air Outlet Node Name
  OutdoorAir:Mixer,                       !- Outdoor Air Mixer Object Type
  ZoneHVACPackagedTerminalAirConditioner 16 OA Mixer, !- Outdoor Air Mixer Name
  Autosize,                               !- Cooling Supply Air Flow Rate {m3/s}
  Autosize,                               !- Heating Supply Air Flow Rate {m3/s}
  Autosize,                               !- No Load Supply Air Flow Rate {m3/s}
  Yes,                                    !- No Load Supply Air Flow Rate Control Set To Low Speed
  1e-06,                                  !- Cooling Outdoor Air Flow Rate {m3/s}
  1e-06,                                  !- Heating Outdoor Air Flow Rate {m3/s}
  1e-06,                                  !- No Load Outdoor Air Flow Rate {m3/s}
  Fan:OnOff,                              !- Supply Air Fan Object Type
  FanOnOff 16,                            !- Supply Air Fan Name
  Coil:Heating:Electric,                  !- Heating Coil Object Type
  CoilHeatingElectric 17,                 !- Heating Coil Name
  Coil:Cooling:DX:SingleSpeed,            !- Cooling Coil Object Type
  CoilCoolingDXSingleSpeed_PTAC 16 50kBtu/hr 9.5EER, !- Cooling Coil Name
  DrawThrough,                            !- Fan Placement
  Always Off Discrete;                    !- Supply Air Fan Operating Mode Schedule Name

OutdoorAir:Mixer,
  ZoneHVACPackagedTerminalAirConditioner 16 OA Mixer, !- Name
  ZoneHVACPackagedTerminalAirConditioner 16 Mixed Air Node, !- Mixed Air Node Name
  ZoneHVACPackagedTerminalAirConditioner 16 OA Node, !- Outdoor Air Stream Node Name
  ZoneHVACPackagedTerminalAirConditioner 16 Relief Air Node, !- Relief Air Stream Node Name
  ZoneHVACPackagedTerminalAirConditioner 16 Inlet Air Node; !- Return Air Stream Node Name

OutdoorAir:NodeList,
  ZoneHVACPackagedTerminalAirConditioner 16 OA Node; !- Node or NodeList Name 1

Fan:OnOff,
  FanOnOff 16,                            !- Name
  Always On Discrete,                     !- Availability Schedule Name
  0.39975,                                !- Fan Total Efficiency
  331.2882503,                            !- Pressure Rise {Pa}
  Autosize,                               !- Maximum Flow Rate {m3/s}
  0.615,                                  !- Motor Efficiency
  1,                                      !- Motor In Airstream Fraction
  ZoneHVACPackagedTerminalAirConditioner 16 Heating Coil Outlet Node, !- Air Inlet Node Name
  ZoneHVACPackagedTerminalAirConditioner 16 Outlet Air Node, !- Air Outlet Node Name
  Fan On Off Power Curve 16,              !- Fan Power Ratio Function of Speed Ratio Curve Name
  Fan On Off Efficiency Curve 16,         !- Fan Efficiency Ratio Function of Speed Ratio Curve Name
  General;                                !- End-Use Subcategory

Curve:Exponent,
  Fan On Off Power Curve 16,              !- Name
  1,                                      !- Coefficient1 Constant
  0,                                      !- Coefficient2 Constant
  0,                                      !- Coefficient3 Constant
  0,                                      !- Minimum Value of x {BasedOnField A2}
  1;                                      !- Maximum Value of x {BasedOnField A2}

Curve:Cubic,
  Fan On Off Efficiency Curve 16,         !- Name
  1,                                      !- Coefficient1 Constant
  0,                                      !- Coefficient2 x
  0,                                      !- Coefficient3 x**2
  0,                                      !- Coefficient4 x**3
  0,                                      !- Minimum Value of x {BasedOnField A2}
  1;                                      !- Maximum Value of x {BasedOnField A2}

Coil:Heating:Electric,
  CoilHeatingElectric 17,                 !- Name
  Always Off Discrete,                    !- Availability Schedule Name
  1,                                      !- Efficiency
  Autosize,                               !- Nominal Capacity {W}
  ZoneHVACPackagedTerminalAirConditioner 16 Cooling Coil Outlet Node, !- Air Inlet Node Name
  ZoneHVACPackagedTerminalAirConditioner 16 Heating Coil Outlet Node; !- Air Outlet Node Name

Coil:Cooling:DX:SingleSpeed,
  CoilCoolingDXSingleSpeed_PTAC 16 50kBtu/hr 9.5EER, !- Name
  Always On Discrete,                     !- Availability Schedule Name
  Autosize,                               !- Gross Rated Total Cooling Capacity {W}
  Autosize,                               !- Gross Rated Sensible Heat Ratio
  3.30019905299558,                       !- Gross Rated Cooling COP {W/W}
  Autosize,                               !- Rated Air Flow Rate {m3/s}
  773.3,                                  !- Rated Evaporator Fan Power Per Volume Flow Rate 2017 {W/(m3/s)}
  934.4,                                  !- Rated Evaporator Fan Power Per Volume Flow Rate 2023 {W/(m3/s)}
  ZoneHVACPackagedTerminalAirConditioner 16 Mixed Air Node, !- Air Inlet Node Name
  ZoneHVACPackagedTerminalAirConditioner 16 Cooling Coil Outlet Node, !- Air Outlet Node Name
  DXCOOL-NECB2011-REF-CAPFT,              !- Total Cooling Capacity Function of Temperature Curve Name
  DXCOOL-NECB2011-REF-CAPFFLOW,           !- Total Cooling Capacity Function of Flow Fraction Curve Name
  DXCOOL-NECB2011-REF-COOLEIRFT,          !- Energy Input Ratio Function of Temperature Curve Name
  DXCOOL-NECB2011-REF-COOLEIRFFLOW,       !- Energy Input Ratio Function of Flow Fraction Curve Name
  DXCOOL-NECB2011-REF-COOLPLFFPLR,        !- Part Load Fraction Correlation Curve Name
  -25,                                    !- Minimum Outdoor Dry-Bulb Temperature for Compressor Operation {C}
  0,                                      !- Nominal Time for Condensate Removal to Begin {s}
  0,                                      !- Ratio of Initial Moisture Evaporation Rate and Steady State Latent Capacity {dimensionless}
  0,                                      !- Maximum Cycling Rate {cycles/hr}
  0,                                      !- Latent Capacity Time Constant {s}
  ,                                       !- Condenser Air Inlet Node Name
  AirCooled,                              !- Condenser Type
  0.9,                                    !- Evaporative Condenser Effectiveness {dimensionless}
  Autosize,                               !- Evaporative Condenser Air Flow Rate {m3/s}
  Autosize,                               !- Evaporative Condenser Pump Rated Power Consumption {W}
  1e-06,                                  !- Crankcase Heater Capacity {W}
  ,                                       !- Crankcase Heater Capacity Function of Temperature Curve Name
  10,                                     !- Maximum Outdoor Dry-Bulb Temperature for Crankcase Heater Operation {C}
  ,                                       !- Supply Water Storage Tank Name
  ,                                       !- Condensate Collection Water Storage Tank Name
  0,                                      !- Basin Heater Capacity {W/K}
  2;                                      !- Basin Heater Setpoint Temperature {C}

ZoneHVAC:Baseboard:Convective:Electric,
  ZoneHVACBaseboardConvectiveElectric 16, !- Name
  Always On Discrete,                     !- Availability Schedule Name
  ,                                       !- Heating Design Capacity Method
  Autosize,                               !- Heating Design Capacity {W}
  ,                                       !- Heating Design Capacity Per Floor Area {W/m2}
  ,                                       !- Fraction of Autosized Heating Design Capacity
  1;                                      !- Efficiency

ZoneHVAC:EquipmentList,
  DU_BT=Space Function_ST=Dwelling units general_FL=Building Story 3_SCHG 8 Equipment List, !- Name
  SequentialLoad,                         !- Load Distribution Scheme
  ZoneHVAC:AirDistributionUnit,           !- Zone Equipment Object Type 1
  ADU Air Terminal Single Duct Constant Volume No Reheat 17, !- Zone Equipment Name 1
  1,                                      !- Zone Equipment Cooling Sequence 1
  1,                                      !- Zone Equipment Heating or No-Load Sequence 1
  ,                                       !- Zone Equipment Sequential Cooling Fraction Schedule Name 1
  ,                                       !- Zone Equipment Sequential Heating Fraction Schedule Name 1
  ZoneHVAC:PackagedTerminalAirConditioner, !- Zone Equipment Object Type 2
  ZoneHVACPackagedTerminalAirConditioner 16, !- Zone Equipment Name 2
  2,                                      !- Zone Equipment Cooling Sequence 2
  2,                                      !- Zone Equipment Heating or No-Load Sequence 2
  ,                                       !- Zone Equipment Sequential Cooling Fraction Schedule Name 2
  ,                                       !- Zone Equipment Sequential Heating Fraction Schedule Name 2
  ZoneHVAC:Baseboard:Convective:Electric, !- Zone Equipment Object Type 3
  ZoneHVACBaseboardConvectiveElectric 16, !- Zone Equipment Name 3
  3,                                      !- Zone Equipment Cooling Sequence 3
  3,                                      !- Zone Equipment Heating or No-Load Sequence 3
  ,                                       !- Zone Equipment Sequential Cooling Fraction Schedule Name 3
  ;                                       !- Zone Equipment Sequential Heating Fraction Schedule Name 3

Sizing:Zone,
  DU_BT=Space Function_ST=Dwelling units general_FL=Building Story 3_SCHG 8, !- Zone or ZoneList Name
  TemperatureDifference,                  !- Zone Cooling Design Supply Air Temperature Input Method
  13,                                     !- Zone Cooling Design Supply Air Temperature {C}
  11,                                     !- Zone Cooling Design Supply Air Temperature Difference {deltaC}
  TemperatureDifference,                  !- Zone Heating Design Supply Air Temperature Input Method
  43,                                     !- Zone Heating Design Supply Air Temperature {C}
  21,                                     !- Zone Heating Design Supply Air Temperature Difference {deltaC}
  0.0085,                                 !- Zone Cooling Design Supply Air Humidity Ratio {kgWater/kgDryAir}
  0.008,                                  !- Zone Heating Design Supply Air Humidity Ratio {kgWater/kgDryAir}
  DU_BT=Space Function_ST=Dwelling units general_FL=Building Story 3_SCHG 8 DSOA Space List, !- Design Specification Outdoor Air Object Name
  1.3,                                    !- Zone Heating Sizing Factor
  1.1,                                    !- Zone Cooling Sizing Factor
  DesignDay,                              !- Cooling Design Air Flow Method
  0,                                      !- Cooling Design Air Flow Rate {m3/s}
  0.000762,                               !- Cooling Minimum Air Flow per Zone Floor Area {m3/s-m2}
  0,                                      !- Cooling Minimum Air Flow {m3/s}
  0,                                      !- Cooling Minimum Air Flow Fraction
  DesignDay,                              !- Heating Design Air Flow Method
  0,                                      !- Heating Design Air Flow Rate {m3/s}
  0.002032,                               !- Heating Maximum Air Flow per Zone Floor Area {m3/s-m2}
  0.1415762,                              !- Heating Maximum Air Flow {m3/s}
  0.3,                                    !- Heating Maximum Air Flow Fraction
  ,                                       !- Design Specification Zone Air Distribution Object Name
  No,                                     !- Account for Dedicated Outdoor Air System
  ,                                       !- Dedicated Outdoor Air System Control Strategy
  ,                                       !- Dedicated Outdoor Air Low Setpoint Temperature for Design {C}
  ,                                       !- Dedicated Outdoor Air High Setpoint Temperature for Design {C}
  Sensible Load Only No Latent Load,      !- Zone Load Sizing Method
  HumidityRatioDifference,                !- Zone Latent Cooling Design Supply Air Humidity Ratio Input Method
  ,                                       !- Zone Dehumidification Design Supply Air Humidity Ratio {kgWater/kgDryAir}
  0.005,                                  !- Zone Cooling Design Supply Air Humidity Ratio Difference {kgWater/kgDryAir}
  HumidityRatioDifference,                !- Zone Latent Heating Design Supply Air Humidity Ratio Input Method
  ,                                       !- Zone Humidification Design Supply Air Humidity Ratio {kgWater/kgDryAir}
  0.005,                                  !- Zone Humidification Design Supply Air Humidity Ratio Difference {kgWater/kgDryAir}
  ,                                       !- Zone Humidistat Dehumidification Set Point Schedule Name
  ,                                       !- Zone Humidistat Humidification Set Point Schedule Name
  Coincident;                             !- Type of Space Sum to Use

DesignSpecification:OutdoorAir:SpaceList,
  DU_BT=Space Function_ST=Dwelling units general_FL=Building Story 3_SCHG 8 DSOA Space List, !- Name
  T SE Apartment,                         !- Space Name 1
  Space Function Dwelling units general Ventilation; !- Space Design Specification Outdoor Air Object Name 1

Zone,
  DU_BT=Space Function_ST=Dwelling units general_FL=Building Story 3_SCHG 9, !- Name
  0,                                      !- Direction of Relative North {deg}
  23.1636701633044,                       !- X Origin {m}
  9.29594664423115,                       !- Y Origin {m}
  6.09570235876431,                       !- Z Origin {m}
  ,                                       !- Type
  1,                                      !- Multiplier
  ,                                       !- Ceiling Height {m}
  ,                                       !- Volume {m3}
  ,                                       !- Floor Area {m2}
  ,                                       !- Zone Inside Convection Algorithm
  ,                                       !- Zone Outside Convection Algorithm
  Yes;                                    !- Part of Total Floor Area

Space,
  T NE Apartment,                         !- Name
  DU_BT=Space Function_ST=Dwelling units general_FL=Building Story 3_SCHG 9, !- Zone Name
  ,                                       !- Ceiling Height {m}
  268.97063879463,                        !- Volume {m3}
  ,                                       !- Floor Area {m2}
  Space Function Dwelling units general;  !- Space Type

BuildingSurface:Detailed,
  t EIWALL N2A Reversed,                  !- Name
  Wall,                                   !- Surface Type
  BTAP-Int-Wall,                          !- Construction Name
  DU_BT=Space Function_ST=Dwelling units general_FL=Building Story 3_SCHG 9, !- Zone Name
  T NE Apartment,                         !- Space Name
  Surface,                                !- Outside Boundary Condition
  t EIWALL N1A,                           !- Outside Boundary Condition Object
  NoSun,                                  !- Sun Exposure
  NoWind,                                 !- Wind Exposure
  ,                                       !- View Factor to Ground
  ,                                       !- Number of Vertices
  0, 7.619628, 3.047851,                  !- X,Y,Z Vertex 1 {m}
  0, 7.619628, 0,                         !- X,Y,Z Vertex 2 {m}
  0, 0, 0,                                !- X,Y,Z Vertex 3 {m}
  0, 0, 3.047851;                         !- X,Y,Z Vertex 4 {m}

BuildingSurface:Detailed,
  t EWall NEA,                            !- Name
  Wall,                                   !- Surface Type
  BTAP-Ext-Wall-Mass:U-0.29,              !- Construction Name
  DU_BT=Space Function_ST=Dwelling units general_FL=Building Story 3_SCHG 9, !- Zone Name
  T NE Apartment,                         !- Space Name
  Outdoors,                               !- Outside Boundary Condition
  ,                                       !- Outside Boundary Condition Object
  SunExposed,                             !- Sun Exposure
  WindExposed,                            !- Wind Exposure
  ,                                       !- View Factor to Ground
  ,                                       !- Number of Vertices
  11.581835, 0, 3.047851,                 !- X,Y,Z Vertex 1 {m}
  11.581835, 0, 0,                        !- X,Y,Z Vertex 2 {m}
  11.581835, 7.619628, 0,                 !- X,Y,Z Vertex 3 {m}
  11.581835, 7.619628, 3.047851;          !- X,Y,Z Vertex 4 {m}

FenestrationSurface:Detailed,
  t EWall NEA_FixedWindow,                !- Name
  Window,                                 !- Surface Type
  BTAP-Ext-FixedWindow:U=0.280 SHGC=0.600, !- Construction Name
  t EWall NEA,                            !- Building Surface Name
  ,                                       !- Outside Boundary Condition Object
  ,                                       !- View Factor to Ground
  ,                                       !- Frame and Divider Name
  ,                                       !- Multiplier
  ,                                       !- Number of Vertices
  11.581835, 0.0254, 1.78374635793937,    !- X,Y,Z Vertex 1 {m}
  11.581835, 0.0254, 0.762,               !- X,Y,Z Vertex 2 {m}
  11.581835, 7.594228, 0.762,             !- X,Y,Z Vertex 3 {m}
  11.581835, 7.594228, 1.78374635793937;  !- X,Y,Z Vertex 4 {m}

BuildingSurface:Detailed,
  t GFloor NEA,                           !- Name
  Floor,                                  !- Surface Type
  BTAP-Int-Wall,                          !- Construction Name
  DU_BT=Space Function_ST=Dwelling units general_FL=Building Story 3_SCHG 9, !- Zone Name
  T NE Apartment,                         !- Space Name
  Adiabatic,                              !- Outside Boundary Condition
  ,                                       !- Outside Boundary Condition Object
  NoSun,                                  !- Sun Exposure
  NoWind,                                 !- Wind Exposure
  ,                                       !- View Factor to Ground
  ,                                       !- Number of Vertices
  11.581835, 7.619628, 0,                 !- X,Y,Z Vertex 1 {m}
  11.581835, 0, 0,                        !- X,Y,Z Vertex 2 {m}
  0, 0, 0,                                !- X,Y,Z Vertex 3 {m}
  0, 7.619628, 0;                         !- X,Y,Z Vertex 4 {m}

BuildingSurface:Detailed,
  t NWall NEA,                            !- Name
  Wall,                                   !- Surface Type
  BTAP-Ext-Wall-Mass:U-0.29,              !- Construction Name
  DU_BT=Space Function_ST=Dwelling units general_FL=Building Story 3_SCHG 9, !- Zone Name
  T NE Apartment,                         !- Space Name
  Outdoors,                               !- Outside Boundary Condition
  ,                                       !- Outside Boundary Condition Object
  SunExposed,                             !- Sun Exposure
  WindExposed,                            !- Wind Exposure
  ,                                       !- View Factor to Ground
  ,                                       !- Number of Vertices
  11.581835, 7.619628, 3.047851,          !- X,Y,Z Vertex 1 {m}
  11.581835, 7.619628, 0,                 !- X,Y,Z Vertex 2 {m}
  0, 7.619628, 0,                         !- X,Y,Z Vertex 3 {m}
  0, 7.619628, 3.047851;                  !- X,Y,Z Vertex 4 {m}

FenestrationSurface:Detailed,
  t NWall NEA_FixedWindow,                !- Name
  Window,                                 !- Surface Type
  BTAP-Ext-FixedWindow:U=0.280 SHGC=0.600, !- Construction Name
  t NWall NEA,                            !- Building Surface Name
  ,                                       !- Outside Boundary Condition Object
  ,                                       !- View Factor to Ground
  ,                                       !- Frame and Divider Name
  ,                                       !- Multiplier
  ,                                       !- Number of Vertices
  11.556435, 7.619628, 1.78140567865181,  !- X,Y,Z Vertex 1 {m}
  11.556435, 7.619628, 0.762,             !- X,Y,Z Vertex 2 {m}
  0.0254000000000012, 7.619628, 0.762,    !- X,Y,Z Vertex 3 {m}
  0.0254000000000012, 7.619628, 1.78140567865181; !- X,Y,Z Vertex 4 {m}

BuildingSurface:Detailed,
  t Roof NEA,                             !- Name
  Roof,                                   !- Surface Type
  BTAP-Ext-Roof-Metal:U-0.2,              !- Construction Name
  DU_BT=Space Function_ST=Dwelling units general_FL=Building Story 3_SCHG 9, !- Zone Name
  T NE Apartment,                         !- Space Name
  Outdoors,                               !- Outside Boundary Condition
  ,                                       !- Outside Boundary Condition Object
  SunExposed,                             !- Sun Exposure
  WindExposed,                            !- Wind Exposure
  ,                                       !- View Factor to Ground
  ,                                       !- Number of Vertices
  11.581835, 0, 3.047851,                 !- X,Y,Z Vertex 1 {m}
  11.581835, 7.619628, 3.047851,          !- X,Y,Z Vertex 2 {m}
  0, 7.619628, 3.047851,                  !- X,Y,Z Vertex 3 {m}
  0, 0, 3.047851;                         !- X,Y,Z Vertex 4 {m}

FenestrationSurface:Detailed,
  t Roof NEA_Skylight,                    !- Name
  Window,                                 !- Surface Type
  BTAP-Ext-Skylights:U=0.241 SHGC=0.600,  !- Construction Name
  t Roof NEA,                             !- Building Surface Name
  ,                                       !- Outside Boundary Condition Object
  ,                                       !- View Factor to Ground
  ,                                       !- Frame and Divider Name
  1,                                      !- Multiplier
  ,                                       !- Number of Vertices
  6.60987690670837, 3.27102493710811, 3.047851, !- X,Y,Z Vertex 1 {m}
  6.60987690670837, 4.34860306289189, 3.047851, !- X,Y,Z Vertex 2 {m}
  4.97195809329163, 4.34860306289189, 3.047851, !- X,Y,Z Vertex 3 {m}
  4.97195809329163, 3.27102493710811, 3.047851; !- X,Y,Z Vertex 4 {m}

BuildingSurface:Detailed,
  t SIWall NEA,                           !- Name
  Wall,                                   !- Surface Type
  BTAP-Int-Wall,                          !- Construction Name
  DU_BT=Space Function_ST=Dwelling units general_FL=Building Story 3_SCHG 9, !- Zone Name
  T NE Apartment,                         !- Space Name
  Surface,                                !- Outside Boundary Condition
  t SIWall NEA Reversed,                  !- Outside Boundary Condition Object
  NoSun,                                  !- Sun Exposure
  NoWind,                                 !- Wind Exposure
  ,                                       !- View Factor to Ground
  ,                                       !- Number of Vertices
  0, 0, 3.047851,                         !- X,Y,Z Vertex 1 {m}
  0, 0, 0,                                !- X,Y,Z Vertex 2 {m}
  11.581835, 0, 0,                        !- X,Y,Z Vertex 3 {m}
  11.581835, 0, 3.047851;                 !- X,Y,Z Vertex 4 {m}

ZoneInfiltration:DesignFlowRate,
  T NE Apartment Infiltration,            !- Name
  T NE Apartment,                         !- Zone or ZoneList or Space or SpaceList Name
  Always On Discrete,                     !- Schedule Name
  Flow/ExteriorArea,                      !- Design Flow Rate Calculation Method
  ,                                       !- Design Flow Rate {m3/s}
  ,                                       !- Flow Rate per Floor Area {m3/s-m2}
  0.00447586595596712,                    !- Flow Rate per Exterior Surface Area {m3/s-m2}
  ,                                       !- Air Changes per Hour {1/hr}
  0,                                      !- Constant Term Coefficient
  0,                                      !- Temperature Term Coefficient
  0.224,                                  !- Velocity Term Coefficient
  0;                                      !- Velocity Squared Term Coefficient

ZoneControl:Thermostat,
  DU_BT=Space Function_ST=Dwelling units general_FL=Building Story 3_SCHG 9 Thermostat, !- Name
  DU_BT=Space Function_ST=Dwelling units general_FL=Building Story 3_SCHG 9, !- Zone or ZoneList Name
  DU_BT=Space Function_ST=Dwelling units general_FL=Building Story 3_SCHG 9 Thermostat Schedule, !- Control Type Schedule Name
  ThermostatSetpoint:DualSetpoint,        !- Control 1 Object Type
  Space Function Dwelling units general Thermostat 42, !- Control 1 Name
  ,                                       !- Control 2 Object Type
  ,                                       !- Control 2 Name
  ,                                       !- Control 3 Object Type
  ,                                       !- Control 3 Name
  ,                                       !- Control 4 Object Type
  ,                                       !- Control 4 Name
  0;                                      !- Temperature Difference Between Cutout And Setpoint {deltaC}

Schedule:Compact,
  DU_BT=Space Function_ST=Dwelling units general_FL=Building Story 3_SCHG 9 Thermostat Schedule, !- Name
  DU_BT=Space Function_ST=Dwelling units general_FL=Building Story 3_SCHG 9 Thermostat Schedule Type Limits, !- Schedule Type Limits Name
  Through: 12/31,                         !- Field 1
  For: AllDays,                           !- Field 2
  Until: 24:00,                           !- Field 3
  4;                                      !- Field 4

ScheduleTypeLimits,
  DU_BT=Space Function_ST=Dwelling units general_FL=Building Story 3_SCHG 9 Thermostat Schedule Type Limits, !- Name
  0,                                      !- Lower Limit Value {BasedOnField A3}
  4,                                      !- Upper Limit Value {BasedOnField A3}
  DISCRETE;                               !- Numeric Type

ThermostatSetpoint:DualSetpoint,
  Space Function Dwelling units general Thermostat 42, !- Name
  NECB-G-Thermostat Setpoint-Heating,     !- Heating Setpoint Temperature Schedule Name
  NECB-G-Thermostat Setpoint-Cooling;     !- Cooling Setpoint Temperature Schedule Name

ZoneHVAC:EquipmentConnections,
  DU_BT=Space Function_ST=Dwelling units general_FL=Building Story 3_SCHG 9, !- Zone Name
  DU_BT=Space Function_ST=Dwelling units general_FL=Building Story 3_SCHG 9 Equipment List, !- Zone Conditioning Equipment List Name
  DU_BT=Space Function_ST=Dwelling units general_FL=Building Story 3_SCHG 9 Inlet Node List, !- Zone Air Inlet Node or NodeList Name
  DU_BT=Space Function_ST=Dwelling units general_FL=Building Story 3_SCHG 9 Exhaust Node List, !- Zone Air Exhaust Node or NodeList Name
  DU_BT=Space Function_ST=Dwelling units general_FL=Building Story 3_SCHG 9 Zone Air Node, !- Zone Air Node Name
  DU_BT=Space Function_ST=Dwelling units general_FL=Building Story 3_SCHG 9 Return Node List; !- Zone Return Air Node or NodeList Name

NodeList,
  DU_BT=Space Function_ST=Dwelling units general_FL=Building Story 3_SCHG 9 Inlet Node List, !- Name
  Air Terminal Single Duct Constant Volume No Reheat 18 Outlet Air Node, !- Node Name 1
  ZoneHVACPackagedTerminalAirConditioner 17 Outlet Air Node; !- Node Name 2

NodeList,
  DU_BT=Space Function_ST=Dwelling units general_FL=Building Story 3_SCHG 9 Exhaust Node List, !- Name
  ZoneHVACPackagedTerminalAirConditioner 17 Inlet Air Node; !- Node Name 1

NodeList,
  DU_BT=Space Function_ST=Dwelling units general_FL=Building Story 3_SCHG 9 Return Node List, !- Name
  DU_BT=Space Function_ST=Dwelling units general_FL=Building Story 3_SCHG 9 Return Air Node; !- Node Name 1

AirTerminal:SingleDuct:ConstantVolume:NoReheat,
  Air Terminal Single Duct Constant Volume No Reheat 18, !- Name
  Always On Discrete,                     !- Availability Schedule Name
  Air Terminal Single Duct Constant Volume No Reheat 18 Inlet Air Node, !- Air Inlet Node Name
  Air Terminal Single Duct Constant Volume No Reheat 18 Outlet Air Node, !- Air Outlet Node Name
  AutoSize;                               !- Maximum Air Flow Rate {m3/s}

ZoneHVAC:AirDistributionUnit,
  ADU Air Terminal Single Duct Constant Volume No Reheat 18, !- Name
  Air Terminal Single Duct Constant Volume No Reheat 18 Outlet Air Node, !- Air Distribution Unit Outlet Node Name
  AirTerminal:SingleDuct:ConstantVolume:NoReheat, !- Air Terminal Object Type
  Air Terminal Single Duct Constant Volume No Reheat 18; !- Air Terminal Name

ZoneHVAC:PackagedTerminalAirConditioner,
  ZoneHVACPackagedTerminalAirConditioner 17, !- Name
  Always On Discrete,                     !- Availability Schedule Name
  ZoneHVACPackagedTerminalAirConditioner 17 Inlet Air Node, !- Air Inlet Node Name
  ZoneHVACPackagedTerminalAirConditioner 17 Outlet Air Node, !- Air Outlet Node Name
  OutdoorAir:Mixer,                       !- Outdoor Air Mixer Object Type
  ZoneHVACPackagedTerminalAirConditioner 17 OA Mixer, !- Outdoor Air Mixer Name
  Autosize,                               !- Cooling Supply Air Flow Rate {m3/s}
  Autosize,                               !- Heating Supply Air Flow Rate {m3/s}
  Autosize,                               !- No Load Supply Air Flow Rate {m3/s}
  Yes,                                    !- No Load Supply Air Flow Rate Control Set To Low Speed
  1e-06,                                  !- Cooling Outdoor Air Flow Rate {m3/s}
  1e-06,                                  !- Heating Outdoor Air Flow Rate {m3/s}
  1e-06,                                  !- No Load Outdoor Air Flow Rate {m3/s}
  Fan:OnOff,                              !- Supply Air Fan Object Type
  FanOnOff 17,                            !- Supply Air Fan Name
  Coil:Heating:Electric,                  !- Heating Coil Object Type
  CoilHeatingElectric 18,                 !- Heating Coil Name
  Coil:Cooling:DX:SingleSpeed,            !- Cooling Coil Object Type
  CoilCoolingDXSingleSpeed_PTAC 17 50kBtu/hr 9.5EER, !- Cooling Coil Name
  DrawThrough,                            !- Fan Placement
  Always Off Discrete;                    !- Supply Air Fan Operating Mode Schedule Name

OutdoorAir:Mixer,
  ZoneHVACPackagedTerminalAirConditioner 17 OA Mixer, !- Name
  ZoneHVACPackagedTerminalAirConditioner 17 Mixed Air Node, !- Mixed Air Node Name
  ZoneHVACPackagedTerminalAirConditioner 17 OA Node, !- Outdoor Air Stream Node Name
  ZoneHVACPackagedTerminalAirConditioner 17 Relief Air Node, !- Relief Air Stream Node Name
  ZoneHVACPackagedTerminalAirConditioner 17 Inlet Air Node; !- Return Air Stream Node Name

OutdoorAir:NodeList,
  ZoneHVACPackagedTerminalAirConditioner 17 OA Node; !- Node or NodeList Name 1

Fan:OnOff,
  FanOnOff 17,                            !- Name
  Always On Discrete,                     !- Availability Schedule Name
  0.39975,                                !- Fan Total Efficiency
  331.2882503,                            !- Pressure Rise {Pa}
  Autosize,                               !- Maximum Flow Rate {m3/s}
  0.615,                                  !- Motor Efficiency
  1,                                      !- Motor In Airstream Fraction
  ZoneHVACPackagedTerminalAirConditioner 17 Heating Coil Outlet Node, !- Air Inlet Node Name
  ZoneHVACPackagedTerminalAirConditioner 17 Outlet Air Node, !- Air Outlet Node Name
  Fan On Off Power Curve 17,              !- Fan Power Ratio Function of Speed Ratio Curve Name
  Fan On Off Efficiency Curve 17,         !- Fan Efficiency Ratio Function of Speed Ratio Curve Name
  General;                                !- End-Use Subcategory

Curve:Exponent,
  Fan On Off Power Curve 17,              !- Name
  1,                                      !- Coefficient1 Constant
  0,                                      !- Coefficient2 Constant
  0,                                      !- Coefficient3 Constant
  0,                                      !- Minimum Value of x {BasedOnField A2}
  1;                                      !- Maximum Value of x {BasedOnField A2}

Curve:Cubic,
  Fan On Off Efficiency Curve 17,         !- Name
  1,                                      !- Coefficient1 Constant
  0,                                      !- Coefficient2 x
  0,                                      !- Coefficient3 x**2
  0,                                      !- Coefficient4 x**3
  0,                                      !- Minimum Value of x {BasedOnField A2}
  1;                                      !- Maximum Value of x {BasedOnField A2}

Coil:Heating:Electric,
  CoilHeatingElectric 18,                 !- Name
  Always Off Discrete,                    !- Availability Schedule Name
  1,                                      !- Efficiency
  Autosize,                               !- Nominal Capacity {W}
  ZoneHVACPackagedTerminalAirConditioner 17 Cooling Coil Outlet Node, !- Air Inlet Node Name
  ZoneHVACPackagedTerminalAirConditioner 17 Heating Coil Outlet Node; !- Air Outlet Node Name

Coil:Cooling:DX:SingleSpeed,
  CoilCoolingDXSingleSpeed_PTAC 17 50kBtu/hr 9.5EER, !- Name
  Always On Discrete,                     !- Availability Schedule Name
  Autosize,                               !- Gross Rated Total Cooling Capacity {W}
  Autosize,                               !- Gross Rated Sensible Heat Ratio
  3.30019905299558,                       !- Gross Rated Cooling COP {W/W}
  Autosize,                               !- Rated Air Flow Rate {m3/s}
  773.3,                                  !- Rated Evaporator Fan Power Per Volume Flow Rate 2017 {W/(m3/s)}
  934.4,                                  !- Rated Evaporator Fan Power Per Volume Flow Rate 2023 {W/(m3/s)}
  ZoneHVACPackagedTerminalAirConditioner 17 Mixed Air Node, !- Air Inlet Node Name
  ZoneHVACPackagedTerminalAirConditioner 17 Cooling Coil Outlet Node, !- Air Outlet Node Name
  DXCOOL-NECB2011-REF-CAPFT,              !- Total Cooling Capacity Function of Temperature Curve Name
  DXCOOL-NECB2011-REF-CAPFFLOW,           !- Total Cooling Capacity Function of Flow Fraction Curve Name
  DXCOOL-NECB2011-REF-COOLEIRFT,          !- Energy Input Ratio Function of Temperature Curve Name
  DXCOOL-NECB2011-REF-COOLEIRFFLOW,       !- Energy Input Ratio Function of Flow Fraction Curve Name
  DXCOOL-NECB2011-REF-COOLPLFFPLR,        !- Part Load Fraction Correlation Curve Name
  -25,                                    !- Minimum Outdoor Dry-Bulb Temperature for Compressor Operation {C}
  0,                                      !- Nominal Time for Condensate Removal to Begin {s}
  0,                                      !- Ratio of Initial Moisture Evaporation Rate and Steady State Latent Capacity {dimensionless}
  0,                                      !- Maximum Cycling Rate {cycles/hr}
  0,                                      !- Latent Capacity Time Constant {s}
  ,                                       !- Condenser Air Inlet Node Name
  AirCooled,                              !- Condenser Type
  0.9,                                    !- Evaporative Condenser Effectiveness {dimensionless}
  Autosize,                               !- Evaporative Condenser Air Flow Rate {m3/s}
  Autosize,                               !- Evaporative Condenser Pump Rated Power Consumption {W}
  1e-06,                                  !- Crankcase Heater Capacity {W}
  ,                                       !- Crankcase Heater Capacity Function of Temperature Curve Name
  10,                                     !- Maximum Outdoor Dry-Bulb Temperature for Crankcase Heater Operation {C}
  ,                                       !- Supply Water Storage Tank Name
  ,                                       !- Condensate Collection Water Storage Tank Name
  0,                                      !- Basin Heater Capacity {W/K}
  2;                                      !- Basin Heater Setpoint Temperature {C}

ZoneHVAC:Baseboard:Convective:Electric,
  ZoneHVACBaseboardConvectiveElectric 17, !- Name
  Always On Discrete,                     !- Availability Schedule Name
  ,                                       !- Heating Design Capacity Method
  Autosize,                               !- Heating Design Capacity {W}
  ,                                       !- Heating Design Capacity Per Floor Area {W/m2}
  ,                                       !- Fraction of Autosized Heating Design Capacity
  1;                                      !- Efficiency

ZoneHVAC:EquipmentList,
  DU_BT=Space Function_ST=Dwelling units general_FL=Building Story 3_SCHG 9 Equipment List, !- Name
  SequentialLoad,                         !- Load Distribution Scheme
  ZoneHVAC:AirDistributionUnit,           !- Zone Equipment Object Type 1
  ADU Air Terminal Single Duct Constant Volume No Reheat 18, !- Zone Equipment Name 1
  1,                                      !- Zone Equipment Cooling Sequence 1
  1,                                      !- Zone Equipment Heating or No-Load Sequence 1
  ,                                       !- Zone Equipment Sequential Cooling Fraction Schedule Name 1
  ,                                       !- Zone Equipment Sequential Heating Fraction Schedule Name 1
  ZoneHVAC:PackagedTerminalAirConditioner, !- Zone Equipment Object Type 2
  ZoneHVACPackagedTerminalAirConditioner 17, !- Zone Equipment Name 2
  2,                                      !- Zone Equipment Cooling Sequence 2
  2,                                      !- Zone Equipment Heating or No-Load Sequence 2
  ,                                       !- Zone Equipment Sequential Cooling Fraction Schedule Name 2
  ,                                       !- Zone Equipment Sequential Heating Fraction Schedule Name 2
  ZoneHVAC:Baseboard:Convective:Electric, !- Zone Equipment Object Type 3
  ZoneHVACBaseboardConvectiveElectric 17, !- Zone Equipment Name 3
  3,                                      !- Zone Equipment Cooling Sequence 3
  3,                                      !- Zone Equipment Heating or No-Load Sequence 3
  ,                                       !- Zone Equipment Sequential Cooling Fraction Schedule Name 3
  ;                                       !- Zone Equipment Sequential Heating Fraction Schedule Name 3

Sizing:Zone,
  DU_BT=Space Function_ST=Dwelling units general_FL=Building Story 3_SCHG 9, !- Zone or ZoneList Name
  TemperatureDifference,                  !- Zone Cooling Design Supply Air Temperature Input Method
  13,                                     !- Zone Cooling Design Supply Air Temperature {C}
  11,                                     !- Zone Cooling Design Supply Air Temperature Difference {deltaC}
  TemperatureDifference,                  !- Zone Heating Design Supply Air Temperature Input Method
  43,                                     !- Zone Heating Design Supply Air Temperature {C}
  21,                                     !- Zone Heating Design Supply Air Temperature Difference {deltaC}
  0.0085,                                 !- Zone Cooling Design Supply Air Humidity Ratio {kgWater/kgDryAir}
  0.008,                                  !- Zone Heating Design Supply Air Humidity Ratio {kgWater/kgDryAir}
  DU_BT=Space Function_ST=Dwelling units general_FL=Building Story 3_SCHG 9 DSOA Space List, !- Design Specification Outdoor Air Object Name
  1.3,                                    !- Zone Heating Sizing Factor
  1.1,                                    !- Zone Cooling Sizing Factor
  DesignDay,                              !- Cooling Design Air Flow Method
  0,                                      !- Cooling Design Air Flow Rate {m3/s}
  0.000762,                               !- Cooling Minimum Air Flow per Zone Floor Area {m3/s-m2}
  0,                                      !- Cooling Minimum Air Flow {m3/s}
  0,                                      !- Cooling Minimum Air Flow Fraction
  DesignDay,                              !- Heating Design Air Flow Method
  0,                                      !- Heating Design Air Flow Rate {m3/s}
  0.002032,                               !- Heating Maximum Air Flow per Zone Floor Area {m3/s-m2}
  0.1415762,                              !- Heating Maximum Air Flow {m3/s}
  0.3,                                    !- Heating Maximum Air Flow Fraction
  ,                                       !- Design Specification Zone Air Distribution Object Name
  No,                                     !- Account for Dedicated Outdoor Air System
  ,                                       !- Dedicated Outdoor Air System Control Strategy
  ,                                       !- Dedicated Outdoor Air Low Setpoint Temperature for Design {C}
  ,                                       !- Dedicated Outdoor Air High Setpoint Temperature for Design {C}
  Sensible Load Only No Latent Load,      !- Zone Load Sizing Method
  HumidityRatioDifference,                !- Zone Latent Cooling Design Supply Air Humidity Ratio Input Method
  ,                                       !- Zone Dehumidification Design Supply Air Humidity Ratio {kgWater/kgDryAir}
  0.005,                                  !- Zone Cooling Design Supply Air Humidity Ratio Difference {kgWater/kgDryAir}
  HumidityRatioDifference,                !- Zone Latent Heating Design Supply Air Humidity Ratio Input Method
  ,                                       !- Zone Humidification Design Supply Air Humidity Ratio {kgWater/kgDryAir}
  0.005,                                  !- Zone Humidification Design Supply Air Humidity Ratio Difference {kgWater/kgDryAir}
  ,                                       !- Zone Humidistat Dehumidification Set Point Schedule Name
  ,                                       !- Zone Humidistat Humidification Set Point Schedule Name
  Coincident;                             !- Type of Space Sum to Use

DesignSpecification:OutdoorAir:SpaceList,
  DU_BT=Space Function_ST=Dwelling units general_FL=Building Story 3_SCHG 9 DSOA Space List, !- Name
  T NE Apartment,                         !- Space Name 1
  Space Function Dwelling units general Ventilation; !- Space Design Specification Outdoor Air Object Name 1

Zone,
  WILD_ST=Corridor/Transition area other-sch-G_FL=Building Story 1_SCH=G, !- Name
  0,                                      !- Direction of Relative North {deg}
  0,                                      !- X Origin {m}
  7.61962839691078,                       !- Y Origin {m}
  0,                                      !- Z Origin {m}
  ,                                       !- Type
  1,                                      !- Multiplier
  ,                                       !- Ceiling Height {m}
  ,                                       !- Volume {m3}
  ,                                       !- Floor Area {m2}
  ,                                       !- Zone Inside Convection Algorithm
  ,                                       !- Zone Outside Convection Algorithm
  Yes;                                    !- Part of Total Floor Area

Space,
  G Corridor,                             !- Name
  WILD_ST=Corridor/Transition area other-sch-G_FL=Building Story 1_SCH=G, !- Zone Name
  ,                                       !- Ceiling Height {m}
  177.520661045373,                       !- Volume {m3}
  ,                                       !- Floor Area {m2}
  Space Function Corridor/Transition area other-sch-G; !- Space Type

SpaceList,
  Space Function Corridor/Transition area other-sch-G, !- Name
  G Corridor,                             !- Space Name 1
  T Corridor,                             !- Space Name 2
  M Corridor;                             !- Space Name 3

Lights,
  Space Function Corridor/Transition area other-sch-G Lights, !- Name
  Space Function Corridor/Transition area other-sch-G, !- Zone or ZoneList or Space or SpaceList Name
  NECB-G-Lighting,                        !- Schedule Name
  Watts/Area,                             !- Design Level Calculation Method
  ,                                       !- Lighting Level {W}
  4.40000426250852,                       !- Watts per Floor Area {W/m2}
  ,                                       !- Watts per Person {W/person}
  ,                                       !- Return Air Fraction
  0.5,                                    !- Fraction Radiant
  0.2,                                    !- Fraction Visible
  1,                                      !- Fraction Replaceable
  General;                                !- End-Use Subcategory

People,
  Space Function Corridor/Transition area other-sch-G People, !- Name
  Space Function Corridor/Transition area other-sch-G, !- Zone or ZoneList or Space or SpaceList Name
  NECB-G-Occupancy,                       !- Number of People Schedule Name
  People/Area,                            !- Number of People Calculation Method
  ,                                       !- Number of People
  0.010003634216273,                      !- People per Floor Area {person/m2}
  ,                                       !- Floor Area per Person {m2/person}
  0.3,                                    !- Fraction Radiant
  ,                                       !- Sensible Heat Fraction
  NECB-Activity,                          !- Activity Level Schedule Name
  ,                                       !- Carbon Dioxide Generation Rate {m3/s-W}
  ,                                       !- Enable ASHRAE 55 Comfort Warnings
  ,                                       !- Mean Radiant Temperature Calculation Type
  ,                                       !- Surface Name/Angle Factor List Name
  Work Efficiency Schedule,               !- Work Efficiency Schedule Name
  ,                                       !- Clothing Insulation Calculation Method
  ,                                       !- Clothing Insulation Calculation Method Schedule Name
  Clothing Schedule,                      !- Clothing Insulation Schedule Name
  Air Velocity Schedule;                  !- Air Velocity Schedule Name

BuildingSurface:Detailed,
  g Ceiling C,                            !- Name
  Ceiling,                                !- Surface Type
  BTAP-Int-Wall,                          !- Construction Name
  WILD_ST=Corridor/Transition area other-sch-G_FL=Building Story 1_SCH=G, !- Zone Name
  G Corridor,                             !- Space Name
  Adiabatic,                              !- Outside Boundary Condition
  ,                                       !- Outside Boundary Condition Object
  NoSun,                                  !- Sun Exposure
  NoWind,                                 !- Wind Exposure
  ,                                       !- View Factor to Ground
  ,                                       !- Number of Vertices
  34.7455051633044, 0, 3.047851,          !- X,Y,Z Vertex 1 {m}
  34.7455051633044, 1.676318, 3.047851,   !- X,Y,Z Vertex 2 {m}
  0, 1.676318, 3.047851,                  !- X,Y,Z Vertex 3 {m}
  0, 0, 3.047851;                         !- X,Y,Z Vertex 4 {m}

BuildingSurface:Detailed,
  g EWall C,                              !- Name
  Wall,                                   !- Surface Type
  BTAP-Ext-Wall-Mass:U-0.29,              !- Construction Name
  WILD_ST=Corridor/Transition area other-sch-G_FL=Building Story 1_SCH=G, !- Zone Name
  G Corridor,                             !- Space Name
  Outdoors,                               !- Outside Boundary Condition
  ,                                       !- Outside Boundary Condition Object
  SunExposed,                             !- Sun Exposure
  WindExposed,                            !- Wind Exposure
  ,                                       !- View Factor to Ground
  ,                                       !- Number of Vertices
  34.7455051633044, -3.9691078068671e-07, 3.047851, !- X,Y,Z Vertex 1 {m}
  34.7455051633044, -3.9691078068671e-07, 0, !- X,Y,Z Vertex 2 {m}
  34.7455051633044, 1.676318, 0,          !- X,Y,Z Vertex 3 {m}
  34.7455051633044, 1.67631824732037, 3.047851; !- X,Y,Z Vertex 4 {m}

FenestrationSurface:Detailed,
  g EWall C_FixedWindow,                  !- Name
  Window,                                 !- Surface Type
  BTAP-Ext-FixedWindow:U=0.280 SHGC=0.600, !- Construction Name
  g EWall C,                              !- Building Surface Name
  ,                                       !- Outside Boundary Condition Object
  ,                                       !- View Factor to Ground
  ,                                       !- Frame and Divider Name
  ,                                       !- Multiplier
  ,                                       !- Number of Vertices
  34.7455051633044, 0.0253996030892193, 1.80865266986148, !- X,Y,Z Vertex 1 {m}
  34.7455051633044, 0.0253996030892193, 0.762, !- X,Y,Z Vertex 2 {m}
  34.7455051633044, 1.65091824732037, 0.762, !- X,Y,Z Vertex 3 {m}
  34.7455051633044, 1.65091824732037, 1.80865266986148; !- X,Y,Z Vertex 4 {m}

BuildingSurface:Detailed,
  g Floor C,                              !- Name
  Floor,                                  !- Surface Type
  BTAP-Grnd-Floor-Mass:U-0.757_std,       !- Construction Name
  WILD_ST=Corridor/Transition area other-sch-G_FL=Building Story 1_SCH=G, !- Zone Name
  G Corridor,                             !- Space Name
  Foundation,                             !- Outside Boundary Condition
  Bldg Kiva Foundation,                   !- Outside Boundary Condition Object
  NoSun,                                  !- Sun Exposure
  NoWind,                                 !- Wind Exposure
  ,                                       !- View Factor to Ground
  ,                                       !- Number of Vertices
  34.7455051633044, 1.676318, 0,          !- X,Y,Z Vertex 1 {m}
  34.7455051633044, 0, 0,                 !- X,Y,Z Vertex 2 {m}
  0, 0, 0,                                !- X,Y,Z Vertex 3 {m}
  0, 1.676318, 0;                         !- X,Y,Z Vertex 4 {m}

SurfaceProperty:ExposedFoundationPerimeter,
  g Floor C,                              !- Surface Name
  TotalExposedPerimeter,                  !- Exposed Perimeter Calculation Method
  3.352636,                               !- Total Exposed Perimeter {m}
  ;                                       !- Exposed Perimeter Fraction {dimensionless}

BuildingSurface:Detailed,
  g NIWall S1A Reversed,                  !- Name
  Wall,                                   !- Surface Type
  BTAP-Int-Wall,                          !- Construction Name
  WILD_ST=Corridor/Transition area other-sch-G_FL=Building Story 1_SCH=G, !- Zone Name
  G Corridor,                             !- Space Name
  Surface,                                !- Outside Boundary Condition
  g NIWall S1A,                           !- Outside Boundary Condition Object
  NoSun,                                  !- Sun Exposure
  NoWind,                                 !- Wind Exposure
  ,                                       !- View Factor to Ground
  ,                                       !- Number of Vertices
  11.581835, -3.9691078068671e-07, 3.047851, !- X,Y,Z Vertex 1 {m}
  11.581835, -3.9691078068671e-07, 0,     !- X,Y,Z Vertex 2 {m}
  23.1636703266088, -3.9691078068671e-07, 0, !- X,Y,Z Vertex 3 {m}
  23.1636703266088, -3.9691078068671e-07, 3.047851; !- X,Y,Z Vertex 4 {m}

BuildingSurface:Detailed,
  g NIWall SEA Reversed,                  !- Name
  Wall,                                   !- Surface Type
  BTAP-Int-Wall,                          !- Construction Name
  WILD_ST=Corridor/Transition area other-sch-G_FL=Building Story 1_SCH=G, !- Zone Name
  G Corridor,                             !- Space Name
  Surface,                                !- Outside Boundary Condition
  g NIWall SEA,                           !- Outside Boundary Condition Object
  NoSun,                                  !- Sun Exposure
  NoWind,                                 !- Wind Exposure
  ,                                       !- View Factor to Ground
  ,                                       !- Number of Vertices
  23.1636703266088, -3.96910780898452e-07, 3.047851, !- X,Y,Z Vertex 1 {m}
  23.1636703266088, -3.96910780898452e-07, 0, !- X,Y,Z Vertex 2 {m}
  34.7455051633044, -3.96910780898452e-07, 0, !- X,Y,Z Vertex 3 {m}
  34.7455051633044, -3.96910780898452e-07, 3.047851; !- X,Y,Z Vertex 4 {m}

BuildingSurface:Detailed,
  g NIWall SWA Reversed,                  !- Name
  Wall,                                   !- Surface Type
  BTAP-Int-Wall,                          !- Construction Name
  WILD_ST=Corridor/Transition area other-sch-G_FL=Building Story 1_SCH=G, !- Zone Name
  G Corridor,                             !- Space Name
  Surface,                                !- Outside Boundary Condition
  g NIWall SWA,                           !- Outside Boundary Condition Object
  NoSun,                                  !- Sun Exposure
  NoWind,                                 !- Wind Exposure
  ,                                       !- View Factor to Ground
  ,                                       !- Number of Vertices
  0, -3.9691078068671e-07, 3.047851,      !- X,Y,Z Vertex 1 {m}
  0, -3.9691078068671e-07, 0,             !- X,Y,Z Vertex 2 {m}
  11.581835, -3.9691078068671e-07, 0,     !- X,Y,Z Vertex 3 {m}
  11.581835, -3.9691078068671e-07, 3.047851; !- X,Y,Z Vertex 4 {m}

BuildingSurface:Detailed,
  g SIWall N1A Reversed,                  !- Name
  Wall,                                   !- Surface Type
  BTAP-Int-Wall,                          !- Construction Name
  WILD_ST=Corridor/Transition area other-sch-G_FL=Building Story 1_SCH=G, !- Zone Name
  G Corridor,                             !- Space Name
  Surface,                                !- Outside Boundary Condition
  g SIWall N1A,                           !- Outside Boundary Condition Object
  NoSun,                                  !- Sun Exposure
  NoWind,                                 !- Wind Exposure
  ,                                       !- View Factor to Ground
  ,                                       !- Number of Vertices
  23.1636701633044, 1.67631824732037, 3.047851, !- X,Y,Z Vertex 1 {m}
  23.1636701633044, 1.67631824732037, 0,  !- X,Y,Z Vertex 2 {m}
  11.5818351633044, 1.67631824732037, 0,  !- X,Y,Z Vertex 3 {m}
  11.5818351633044, 1.67631824732037, 3.047851; !- X,Y,Z Vertex 4 {m}

BuildingSurface:Detailed,
  g SIWall NEA Reversed,                  !- Name
  Wall,                                   !- Surface Type
  BTAP-Int-Wall,                          !- Construction Name
  WILD_ST=Corridor/Transition area other-sch-G_FL=Building Story 1_SCH=G, !- Zone Name
  G Corridor,                             !- Space Name
  Surface,                                !- Outside Boundary Condition
  g SIWall NEA,                           !- Outside Boundary Condition Object
  NoSun,                                  !- Sun Exposure
  NoWind,                                 !- Wind Exposure
  ,                                       !- View Factor to Ground
  ,                                       !- Number of Vertices
  34.7455051633044, 1.67631824732037, 3.047851, !- X,Y,Z Vertex 1 {m}
  34.7455051633044, 1.676318, 0,          !- X,Y,Z Vertex 2 {m}
  23.1636701633044, 1.67631824732037, 0,  !- X,Y,Z Vertex 3 {m}
  23.1636701633044, 1.67631824732037, 3.047851; !- X,Y,Z Vertex 4 {m}

BuildingSurface:Detailed,
  g SIWall NWA Reversed,                  !- Name
  Wall,                                   !- Surface Type
  BTAP-Int-Wall,                          !- Construction Name
  WILD_ST=Corridor/Transition area other-sch-G_FL=Building Story 1_SCH=G, !- Zone Name
  G Corridor,                             !- Space Name
  Surface,                                !- Outside Boundary Condition
  g SIWall NWA,                           !- Outside Boundary Condition Object
  NoSun,                                  !- Sun Exposure
  NoWind,                                 !- Wind Exposure
  ,                                       !- View Factor to Ground
  ,                                       !- Number of Vertices
  11.5818351633044, 1.67631830915046, 3.047851, !- X,Y,Z Vertex 1 {m}
  11.5818351633044, 1.67631818549028, 2.50862687491332e-15, !- X,Y,Z Vertex 2 {m}
  -6.60164900935919e-16, 1.67631806183009, -2.50862691884839e-15, !- X,Y,Z Vertex 3 {m}
  6.6016488937406e-16, 1.67631818549028, 3.047851; !- X,Y,Z Vertex 4 {m}

BuildingSurface:Detailed,
  g WWall C,                              !- Name
  Wall,                                   !- Surface Type
  BTAP-Ext-Wall-Mass:U-0.29,              !- Construction Name
  WILD_ST=Corridor/Transition area other-sch-G_FL=Building Story 1_SCH=G, !- Zone Name
  G Corridor,                             !- Space Name
  Outdoors,                               !- Outside Boundary Condition
  ,                                       !- Outside Boundary Condition Object
  SunExposed,                             !- Sun Exposure
  WindExposed,                            !- Wind Exposure
  ,                                       !- View Factor to Ground
  ,                                       !- Number of Vertices
  0, 1.67631824732037, 3.047851,          !- X,Y,Z Vertex 1 {m}
  0, 1.676318, 0,                         !- X,Y,Z Vertex 2 {m}
  0, -3.9691078068671e-07, 0,             !- X,Y,Z Vertex 3 {m}
  0, -3.9691078068671e-07, 3.047851;      !- X,Y,Z Vertex 4 {m}

FenestrationSurface:Detailed,
  g WWall C_FixedWindow,                  !- Name
  Window,                                 !- Surface Type
  BTAP-Ext-FixedWindow:U=0.280 SHGC=0.600, !- Construction Name
  g WWall C,                              !- Building Surface Name
  ,                                       !- Outside Boundary Condition Object
  ,                                       !- View Factor to Ground
  ,                                       !- Frame and Divider Name
  ,                                       !- Multiplier
  ,                                       !- Number of Vertices
  0, 1.65091824732037, 1.80865266986148,  !- X,Y,Z Vertex 1 {m}
  0, 1.65091824732037, 0.762,             !- X,Y,Z Vertex 2 {m}
  0, 0.0253996030892192, 0.762,           !- X,Y,Z Vertex 3 {m}
  0, 0.0253996030892192, 1.80865266986148; !- X,Y,Z Vertex 4 {m}

ZoneInfiltration:DesignFlowRate,
  G Corridor Infiltration,                !- Name
  G Corridor,                             !- Zone or ZoneList or Space or SpaceList Name
  Always On Discrete,                     !- Schedule Name
  Flow/ExteriorArea,                      !- Design Flow Rate Calculation Method
  ,                                       !- Design Flow Rate {m3/s}
  ,                                       !- Flow Rate per Floor Area {m3/s-m2}
  0.00447586595596712,                    !- Flow Rate per Exterior Surface Area {m3/s-m2}
  ,                                       !- Air Changes per Hour {1/hr}
  0,                                      !- Constant Term Coefficient
  0,                                      !- Temperature Term Coefficient
  0.224,                                  !- Velocity Term Coefficient
  0;                                      !- Velocity Squared Term Coefficient

ZoneControl:Thermostat,
  WILD_ST=Corridor/Transition area other-sch-G_FL=Building Story 1_SCH=G Thermostat, !- Name
  WILD_ST=Corridor/Transition area other-sch-G_FL=Building Story 1_SCH=G, !- Zone or ZoneList Name
  WILD_ST=Corridor/Transition area other-sch-G_FL=Building Story 1_SCH=G Thermostat Schedule, !- Control Type Schedule Name
  ThermostatSetpoint:DualSetpoint,        !- Control 1 Object Type
  Space Function Corridor/Transition area other-sch-G Thermostat 7, !- Control 1 Name
  ,                                       !- Control 2 Object Type
  ,                                       !- Control 2 Name
  ,                                       !- Control 3 Object Type
  ,                                       !- Control 3 Name
  ,                                       !- Control 4 Object Type
  ,                                       !- Control 4 Name
  0;                                      !- Temperature Difference Between Cutout And Setpoint {deltaC}

Schedule:Compact,
  WILD_ST=Corridor/Transition area other-sch-G_FL=Building Story 1_SCH=G Thermostat Schedule, !- Name
  WILD_ST=Corridor/Transition area other-sch-G_FL=Building Story 1_SCH=G Thermostat Schedule Type Limits, !- Schedule Type Limits Name
  Through: 12/31,                         !- Field 1
  For: AllDays,                           !- Field 2
  Until: 24:00,                           !- Field 3
  4;                                      !- Field 4

ScheduleTypeLimits,
  WILD_ST=Corridor/Transition area other-sch-G_FL=Building Story 1_SCH=G Thermostat Schedule Type Limits, !- Name
  0,                                      !- Lower Limit Value {BasedOnField A3}
  4,                                      !- Upper Limit Value {BasedOnField A3}
  DISCRETE;                               !- Numeric Type

ThermostatSetpoint:DualSetpoint,
  Space Function Corridor/Transition area other-sch-G Thermostat 7, !- Name
  NECB-G-Thermostat Setpoint-Heating,     !- Heating Setpoint Temperature Schedule Name
  NECB-G-Thermostat Setpoint-Cooling;     !- Cooling Setpoint Temperature Schedule Name

ZoneHVAC:EquipmentConnections,
  WILD_ST=Corridor/Transition area other-sch-G_FL=Building Story 1_SCH=G, !- Zone Name
  WILD_ST=Corridor/Transition area other-sch-G_FL=Building Story 1_SCH=G Equipment List, !- Zone Conditioning Equipment List Name
  WILD_ST=Corridor/Transition area other-sch-G_FL=Building Story 1_SCH=G Inlet Node List, !- Zone Air Inlet Node or NodeList Name
  ,                                       !- Zone Air Exhaust Node or NodeList Name
  WILD_ST=Corridor/Transition area other-sch-G_FL=Building Story 1_SCH=G Zone Air Node, !- Zone Air Node Name
  WILD_ST=Corridor/Transition area other-sch-G_FL=Building Story 1_SCH=G Return Node List; !- Zone Return Air Node or NodeList Name

NodeList,
  WILD_ST=Corridor/Transition area other-sch-G_FL=Building Story 1_SCH=G Inlet Node List, !- Name
  Air Terminal Single Duct Constant Volume No Reheat 19 Outlet Air Node; !- Node Name 1

NodeList,
  WILD_ST=Corridor/Transition area other-sch-G_FL=Building Story 1_SCH=G Return Node List, !- Name
  WILD_ST=Corridor/Transition area other-sch-G_FL=Building Story 1_SCH=G Return Air Node; !- Node Name 1

AirTerminal:SingleDuct:ConstantVolume:NoReheat,
  Air Terminal Single Duct Constant Volume No Reheat 19, !- Name
  Always On Discrete,                     !- Availability Schedule Name
  Air Terminal Single Duct Constant Volume No Reheat 19 Inlet Air Node, !- Air Inlet Node Name
  Air Terminal Single Duct Constant Volume No Reheat 19 Outlet Air Node, !- Air Outlet Node Name
  AutoSize;                               !- Maximum Air Flow Rate {m3/s}

ZoneHVAC:AirDistributionUnit,
  ADU Air Terminal Single Duct Constant Volume No Reheat 19, !- Name
  Air Terminal Single Duct Constant Volume No Reheat 19 Outlet Air Node, !- Air Distribution Unit Outlet Node Name
  AirTerminal:SingleDuct:ConstantVolume:NoReheat, !- Air Terminal Object Type
  Air Terminal Single Duct Constant Volume No Reheat 19; !- Air Terminal Name

ZoneHVAC:Baseboard:Convective:Electric,
  ZoneHVACBaseboardConvectiveElectric 18, !- Name
  Always On Discrete,                     !- Availability Schedule Name
  ,                                       !- Heating Design Capacity Method
  Autosize,                               !- Heating Design Capacity {W}
  ,                                       !- Heating Design Capacity Per Floor Area {W/m2}
  ,                                       !- Fraction of Autosized Heating Design Capacity
  1;                                      !- Efficiency

ZoneHVAC:EquipmentList,
  WILD_ST=Corridor/Transition area other-sch-G_FL=Building Story 1_SCH=G Equipment List, !- Name
  SequentialLoad,                         !- Load Distribution Scheme
  ZoneHVAC:AirDistributionUnit,           !- Zone Equipment Object Type 1
  ADU Air Terminal Single Duct Constant Volume No Reheat 19, !- Zone Equipment Name 1
  1,                                      !- Zone Equipment Cooling Sequence 1
  1,                                      !- Zone Equipment Heating or No-Load Sequence 1
  ,                                       !- Zone Equipment Sequential Cooling Fraction Schedule Name 1
  ,                                       !- Zone Equipment Sequential Heating Fraction Schedule Name 1
  ZoneHVAC:Baseboard:Convective:Electric, !- Zone Equipment Object Type 2
  ZoneHVACBaseboardConvectiveElectric 18, !- Zone Equipment Name 2
  2,                                      !- Zone Equipment Cooling Sequence 2
  2,                                      !- Zone Equipment Heating or No-Load Sequence 2
  ,                                       !- Zone Equipment Sequential Cooling Fraction Schedule Name 2
  ;                                       !- Zone Equipment Sequential Heating Fraction Schedule Name 2

Sizing:Zone,
  WILD_ST=Corridor/Transition area other-sch-G_FL=Building Story 1_SCH=G, !- Zone or ZoneList Name
  TemperatureDifference,                  !- Zone Cooling Design Supply Air Temperature Input Method
  13,                                     !- Zone Cooling Design Supply Air Temperature {C}
  11,                                     !- Zone Cooling Design Supply Air Temperature Difference {deltaC}
  TemperatureDifference,                  !- Zone Heating Design Supply Air Temperature Input Method
  43,                                     !- Zone Heating Design Supply Air Temperature {C}
  21,                                     !- Zone Heating Design Supply Air Temperature Difference {deltaC}
  0.0085,                                 !- Zone Cooling Design Supply Air Humidity Ratio {kgWater/kgDryAir}
  0.008,                                  !- Zone Heating Design Supply Air Humidity Ratio {kgWater/kgDryAir}
  WILD_ST=Corridor/Transition area other-sch-G_FL=Building Story 1_SCH=G DSOA Space List, !- Design Specification Outdoor Air Object Name
  1.3,                                    !- Zone Heating Sizing Factor
  1.1,                                    !- Zone Cooling Sizing Factor
  DesignDay,                              !- Cooling Design Air Flow Method
  0,                                      !- Cooling Design Air Flow Rate {m3/s}
  0.000762,                               !- Cooling Minimum Air Flow per Zone Floor Area {m3/s-m2}
  0,                                      !- Cooling Minimum Air Flow {m3/s}
  0,                                      !- Cooling Minimum Air Flow Fraction
  DesignDay,                              !- Heating Design Air Flow Method
  0,                                      !- Heating Design Air Flow Rate {m3/s}
  0.002032,                               !- Heating Maximum Air Flow per Zone Floor Area {m3/s-m2}
  0.1415762,                              !- Heating Maximum Air Flow {m3/s}
  0.3,                                    !- Heating Maximum Air Flow Fraction
  ,                                       !- Design Specification Zone Air Distribution Object Name
  No,                                     !- Account for Dedicated Outdoor Air System
  ,                                       !- Dedicated Outdoor Air System Control Strategy
  ,                                       !- Dedicated Outdoor Air Low Setpoint Temperature for Design {C}
  ,                                       !- Dedicated Outdoor Air High Setpoint Temperature for Design {C}
  Sensible Load Only No Latent Load,      !- Zone Load Sizing Method
  HumidityRatioDifference,                !- Zone Latent Cooling Design Supply Air Humidity Ratio Input Method
  ,                                       !- Zone Dehumidification Design Supply Air Humidity Ratio {kgWater/kgDryAir}
  0.005,                                  !- Zone Cooling Design Supply Air Humidity Ratio Difference {kgWater/kgDryAir}
  HumidityRatioDifference,                !- Zone Latent Heating Design Supply Air Humidity Ratio Input Method
  ,                                       !- Zone Humidification Design Supply Air Humidity Ratio {kgWater/kgDryAir}
  0.005,                                  !- Zone Humidification Design Supply Air Humidity Ratio Difference {kgWater/kgDryAir}
  ,                                       !- Zone Humidistat Dehumidification Set Point Schedule Name
  ,                                       !- Zone Humidistat Humidification Set Point Schedule Name
  Coincident;                             !- Type of Space Sum to Use

Schedule:Day:Interval,
  Schedule Day 12,                        !- Name
  Fractional,                             !- Schedule Type Limits Name
  No,                                     !- Interpolate to Timestep
  24:00,                                  !- Time 1 {hh:mm}
  1;                                      !- Value Until Time 1

Schedule:Day:Interval,
  sys_4|mixed|shr>none|sc>ccashp|sh>ccashp|ssf>cv|zh>b-e|zc>none|srf>none| Occ Sch Default, !- Name
  Fractional,                             !- Schedule Type Limits Name
  No,                                     !- Interpolate to Timestep
  24:00,                                  !- Time 1 {hh:mm}
  1;                                      !- Value Until Time 1

Schedule:Day:Interval,
  Schedule Day 11,                        !- Name
  Fractional,                             !- Schedule Type Limits Name
  No,                                     !- Interpolate to Timestep
  24:00,                                  !- Time 1 {hh:mm}
  1;                                      !- Value Until Time 1

Schedule:Week:Daily,
  sys_4|mixed|shr>none|sc>ccashp|sh>ccashp|ssf>cv|zh>b-e|zc>none|srf>none| Occ Sch Week Rule - Jan1-Dec31, !- Name
  Schedule Day 12,                        !- Sunday Schedule:Day Name
  sys_4|mixed|shr>none|sc>ccashp|sh>ccashp|ssf>cv|zh>b-e|zc>none|srf>none| Occ Sch Default, !- Monday Schedule:Day Name
  sys_4|mixed|shr>none|sc>ccashp|sh>ccashp|ssf>cv|zh>b-e|zc>none|srf>none| Occ Sch Default, !- Tuesday Schedule:Day Name
  sys_4|mixed|shr>none|sc>ccashp|sh>ccashp|ssf>cv|zh>b-e|zc>none|srf>none| Occ Sch Default, !- Wednesday Schedule:Day Name
  sys_4|mixed|shr>none|sc>ccashp|sh>ccashp|ssf>cv|zh>b-e|zc>none|srf>none| Occ Sch Default, !- Thursday Schedule:Day Name
  sys_4|mixed|shr>none|sc>ccashp|sh>ccashp|ssf>cv|zh>b-e|zc>none|srf>none| Occ Sch Default, !- Friday Schedule:Day Name
  Schedule Day 11,                        !- Saturday Schedule:Day Name
  sys_4|mixed|shr>none|sc>ccashp|sh>ccashp|ssf>cv|zh>b-e|zc>none|srf>none| Occ Sch Default, !- Holiday Schedule:Day Name
  sys_4|mixed|shr>none|sc>ccashp|sh>ccashp|ssf>cv|zh>b-e|zc>none|srf>none| Occ Sch Summer Design Day, !- SummerDesignDay Schedule:Day Name
  sys_4|mixed|shr>none|sc>ccashp|sh>ccashp|ssf>cv|zh>b-e|zc>none|srf>none| Occ Sch Winter Design Day, !- WinterDesignDay Schedule:Day Name
  sys_4|mixed|shr>none|sc>ccashp|sh>ccashp|ssf>cv|zh>b-e|zc>none|srf>none| Occ Sch Default, !- CustomDay1 Schedule:Day Name
  sys_4|mixed|shr>none|sc>ccashp|sh>ccashp|ssf>cv|zh>b-e|zc>none|srf>none| Occ Sch Default; !- CustomDay2 Schedule:Day Name

Schedule:Year,
  sys_4|mixed|shr>none|sc>ccashp|sh>ccashp|ssf>cv|zh>b-e|zc>none|srf>none| Occ Sch, !- Name
  Fractional,                             !- Schedule Type Limits Name
  sys_4|mixed|shr>none|sc>ccashp|sh>ccashp|ssf>cv|zh>b-e|zc>none|srf>none| Occ Sch Week Rule - Jan1-Dec31, !- Schedule:Week Name 1
  1,                                      !- Start Month 1
  1,                                      !- Start Day 1
  12,                                     !- End Month 1
  31;                                     !- End Day 1

Schedule:Day:Interval,
  sys_4|mixed|shr>none|sc>ccashp|sh>ccashp|ssf>cv|zh>b-e|zc>none|srf>none| Occ Sch Summer Design Day, !- Name
  Fractional,                             !- Schedule Type Limits Name
  No,                                     !- Interpolate to Timestep
  24:00,                                  !- Time 1 {hh:mm}
  1;                                      !- Value Until Time 1

Schedule:Day:Interval,
  sys_4|mixed|shr>none|sc>ccashp|sh>ccashp|ssf>cv|zh>b-e|zc>none|srf>none| Occ Sch Winter Design Day, !- Name
  Fractional,                             !- Schedule Type Limits Name
  No,                                     !- Interpolate to Timestep
  24:00,                                  !- Time 1 {hh:mm}
  1;                                      !- Value Until Time 1

Controller:MechanicalVentilation,
  Controller Mechanical Ventilation 2,    !- Name
  sys_4|mixed|shr>none|sc>ccashp|sh>ccashp|ssf>cv|zh>b-e|zc>none|srf>none| Occ Sch, !- Availability Schedule Name
  No,                                     !- Demand Controlled Ventilation
  ZoneSum,                                !- System Outdoor Air Method
  ,                                       !- Zone Maximum Outdoor Air Fraction {dimensionless}
  WILD_ST=Corridor/Transition area other-sch-G_FL=Building Story 1_SCH=G, !- Zone or ZoneList Name 1
  Space Function Corridor/Transition area other-sch-G Ventilation, !- Design Specification Outdoor Air Object Name 1
  ,                                       !- Design Specification Zone Air Distribution Object Name 1
  WILD_ST=Corridor/Transition area other-sch-G_FL=Building Story 2_SCH=G, !- Zone or ZoneList Name 2
  Space Function Corridor/Transition area other-sch-G Ventilation, !- Design Specification Outdoor Air Object Name 2
  ,                                       !- Design Specification Zone Air Distribution Object Name 2
  WILD_ST=Corridor/Transition area other-sch-G_FL=Building Story 3_SCH=G, !- Zone or ZoneList Name 3
  Space Function Corridor/Transition area other-sch-G Ventilation, !- Design Specification Outdoor Air Object Name 3
  ;                                       !- Design Specification Zone Air Distribution Object Name 3

DesignSpecification:OutdoorAir,
  Space Function Corridor/Transition area other-sch-G Ventilation, !- Name
  Sum,                                    !- Outdoor Air Method
  0,                                      !- Outdoor Air Flow per Person {m3/s-person}
  0.0003048,                              !- Outdoor Air Flow per Zone Floor Area {m3/s-m2}
  0,                                      !- Outdoor Air Flow per Zone {m3/s}
  0;                                      !- Outdoor Air Flow Air Changes per Hour {1/hr}

DesignSpecification:OutdoorAir:SpaceList,
  WILD_ST=Corridor/Transition area other-sch-G_FL=Building Story 1_SCH=G DSOA Space List, !- Name
  G Corridor,                             !- Space Name 1
  Space Function Corridor/Transition area other-sch-G Ventilation; !- Space Design Specification Outdoor Air Object Name 1

Zone,
  WILD_ST=Corridor/Transition area other-sch-G_FL=Building Story 2_SCH=G, !- Name
  ,                                       !- Direction of Relative North {deg}
  0,                                      !- X Origin {m}
  7.61962839691078,                       !- Y Origin {m}
  3.04785135876431,                       !- Z Origin {m}
  ,                                       !- Type
  1,                                      !- Multiplier
  ,                                       !- Ceiling Height {m}
  ,                                       !- Volume {m3}
  ,                                       !- Floor Area {m2}
  ,                                       !- Zone Inside Convection Algorithm
  ,                                       !- Zone Outside Convection Algorithm
  Yes;                                    !- Part of Total Floor Area

Space,
  M Corridor,                             !- Name
  WILD_ST=Corridor/Transition area other-sch-G_FL=Building Story 2_SCH=G, !- Zone Name
  ,                                       !- Ceiling Height {m}
  177.520650977288,                       !- Volume {m3}
  ,                                       !- Floor Area {m2}
  Space Function Corridor/Transition area other-sch-G; !- Space Type

BuildingSurface:Detailed,
  m Ceiling C,                            !- Name
  Ceiling,                                !- Surface Type
  BTAP-Int-Wall,                          !- Construction Name
  WILD_ST=Corridor/Transition area other-sch-G_FL=Building Story 2_SCH=G, !- Zone Name
  M Corridor,                             !- Space Name
  Adiabatic,                              !- Outside Boundary Condition
  ,                                       !- Outside Boundary Condition Object
  NoSun,                                  !- Sun Exposure
  NoWind,                                 !- Wind Exposure
  ,                                       !- View Factor to Ground
  ,                                       !- Number of Vertices
  34.7455051633044, 0, 3.047851,          !- X,Y,Z Vertex 1 {m}
  34.7455051633044, 1.676318, 3.047851,   !- X,Y,Z Vertex 2 {m}
  0, 1.676318, 3.047851,                  !- X,Y,Z Vertex 3 {m}
  0, 0, 3.047851;                         !- X,Y,Z Vertex 4 {m}

BuildingSurface:Detailed,
  m EWall C,                              !- Name
  Wall,                                   !- Surface Type
  BTAP-Ext-Wall-Mass:U-0.29,              !- Construction Name
  WILD_ST=Corridor/Transition area other-sch-G_FL=Building Story 2_SCH=G, !- Zone Name
  M Corridor,                             !- Space Name
  Outdoors,                               !- Outside Boundary Condition
  ,                                       !- Outside Boundary Condition Object
  SunExposed,                             !- Sun Exposure
  WindExposed,                            !- Wind Exposure
  ,                                       !- View Factor to Ground
  ,                                       !- Number of Vertices
  34.7455051633044, 0, 3.047851,          !- X,Y,Z Vertex 1 {m}
  34.7455051633044, 0, 0,                 !- X,Y,Z Vertex 2 {m}
  34.7455051633044, 1.676318, 0,          !- X,Y,Z Vertex 3 {m}
  34.7455051633044, 1.676318, 3.047851;   !- X,Y,Z Vertex 4 {m}

FenestrationSurface:Detailed,
  m EWall C_FixedWindow,                  !- Name
  Window,                                 !- Surface Type
  BTAP-Ext-FixedWindow:U=0.280 SHGC=0.600, !- Construction Name
  m EWall C,                              !- Building Surface Name
  ,                                       !- Outside Boundary Condition Object
  ,                                       !- View Factor to Ground
  ,                                       !- Frame and Divider Name
  ,                                       !- Multiplier
  ,                                       !- Number of Vertices
  34.7455051633044, 0.0254, 1.80865268243218, !- X,Y,Z Vertex 1 {m}
  34.7455051633044, 0.0254, 0.762,        !- X,Y,Z Vertex 2 {m}
  34.7455051633044, 1.650918, 0.762,      !- X,Y,Z Vertex 3 {m}
  34.7455051633044, 1.650918, 1.80865268243218; !- X,Y,Z Vertex 4 {m}

BuildingSurface:Detailed,
  m Floor C,                              !- Name
  Floor,                                  !- Surface Type
  BTAP-Int-Wall,                          !- Construction Name
  WILD_ST=Corridor/Transition area other-sch-G_FL=Building Story 2_SCH=G, !- Zone Name
  M Corridor,                             !- Space Name
  Adiabatic,                              !- Outside Boundary Condition
  ,                                       !- Outside Boundary Condition Object
  NoSun,                                  !- Sun Exposure
  NoWind,                                 !- Wind Exposure
  ,                                       !- View Factor to Ground
  ,                                       !- Number of Vertices
  34.7455051633044, 1.676318, -3.5876430981574e-07, !- X,Y,Z Vertex 1 {m}
  34.7455051633044, 0, -3.5876430981574e-07, !- X,Y,Z Vertex 2 {m}
  0, 0, -3.5876430981574e-07,             !- X,Y,Z Vertex 3 {m}
  0, 1.676318, -3.5876430981574e-07;      !- X,Y,Z Vertex 4 {m}

BuildingSurface:Detailed,
  m NIWall S1A Reversed,                  !- Name
  Wall,                                   !- Surface Type
  BTAP-Int-Wall,                          !- Construction Name
  WILD_ST=Corridor/Transition area other-sch-G_FL=Building Story 2_SCH=G, !- Zone Name
  M Corridor,                             !- Space Name
  Surface,                                !- Outside Boundary Condition
  m NIWall S1A,                           !- Outside Boundary Condition Object
  NoSun,                                  !- Sun Exposure
  NoWind,                                 !- Wind Exposure
  ,                                       !- View Factor to Ground
  ,                                       !- Number of Vertices
  11.5818351633044, -3.9691078068671e-07, 3.047851, !- X,Y,Z Vertex 1 {m}
  11.5818351633044, -3.9691078068671e-07, 0, !- X,Y,Z Vertex 2 {m}
  23.1636703266088, -3.9691078068671e-07, 0, !- X,Y,Z Vertex 3 {m}
  23.1636703266088, -3.9691078068671e-07, 3.047851; !- X,Y,Z Vertex 4 {m}

BuildingSurface:Detailed,
  m NIWall SEA Reversed,                  !- Name
  Wall,                                   !- Surface Type
  BTAP-Int-Wall,                          !- Construction Name
  WILD_ST=Corridor/Transition area other-sch-G_FL=Building Story 2_SCH=G, !- Zone Name
  M Corridor,                             !- Space Name
  Surface,                                !- Outside Boundary Condition
  m NIWall SEA,                           !- Outside Boundary Condition Object
  NoSun,                                  !- Sun Exposure
  NoWind,                                 !- Wind Exposure
  ,                                       !- View Factor to Ground
  ,                                       !- Number of Vertices
  23.1636701633044, -3.96910780898452e-07, 3.047851, !- X,Y,Z Vertex 1 {m}
  23.1636701633044, -3.96910780898452e-07, 0, !- X,Y,Z Vertex 2 {m}
  34.7455051633044, 0, 0,                 !- X,Y,Z Vertex 3 {m}
  34.7455051633044, 0, 3.047851;          !- X,Y,Z Vertex 4 {m}

BuildingSurface:Detailed,
  m NIWall SWA Reversed,                  !- Name
  Wall,                                   !- Surface Type
  BTAP-Int-Wall,                          !- Construction Name
  WILD_ST=Corridor/Transition area other-sch-G_FL=Building Story 2_SCH=G, !- Zone Name
  M Corridor,                             !- Space Name
  Surface,                                !- Outside Boundary Condition
  m NIWall SWA,                           !- Outside Boundary Condition Object
  NoSun,                                  !- Sun Exposure
  NoWind,                                 !- Wind Exposure
  ,                                       !- View Factor to Ground
  ,                                       !- Number of Vertices
  0, 0, 3.047851,                         !- X,Y,Z Vertex 1 {m}
  0, 0, 0,                                !- X,Y,Z Vertex 2 {m}
  11.5818351633044, -3.9691078068671e-07, 0, !- X,Y,Z Vertex 3 {m}
  11.5818351633044, -3.9691078068671e-07, 3.047851; !- X,Y,Z Vertex 4 {m}

BuildingSurface:Detailed,
  m SIWall N1A Reversed,                  !- Name
  Wall,                                   !- Surface Type
  BTAP-Int-Wall,                          !- Construction Name
  WILD_ST=Corridor/Transition area other-sch-G_FL=Building Story 2_SCH=G, !- Zone Name
  M Corridor,                             !- Space Name
  Surface,                                !- Outside Boundary Condition
  m SIWall N1A,                           !- Outside Boundary Condition Object
  NoSun,                                  !- Sun Exposure
  NoWind,                                 !- Wind Exposure
  ,                                       !- View Factor to Ground
  ,                                       !- Number of Vertices
  23.1636701633044, 1.67631824732037, 3.047851, !- X,Y,Z Vertex 1 {m}
  23.1636701633044, 1.67631824732037, 0,  !- X,Y,Z Vertex 2 {m}
  11.5818351633044, 1.67631824732037, 0,  !- X,Y,Z Vertex 3 {m}
  11.5818351633044, 1.67631824732037, 3.047851; !- X,Y,Z Vertex 4 {m}

BuildingSurface:Detailed,
  m SIWall NEA Reversed,                  !- Name
  Wall,                                   !- Surface Type
  BTAP-Int-Wall,                          !- Construction Name
  WILD_ST=Corridor/Transition area other-sch-G_FL=Building Story 2_SCH=G, !- Zone Name
  M Corridor,                             !- Space Name
  Surface,                                !- Outside Boundary Condition
  m SIWall NEA,                           !- Outside Boundary Condition Object
  NoSun,                                  !- Sun Exposure
  NoWind,                                 !- Wind Exposure
  ,                                       !- View Factor to Ground
  ,                                       !- Number of Vertices
  34.7455051633044, 1.676318, 3.047851,   !- X,Y,Z Vertex 1 {m}
  34.7455051633044, 1.676318, 0,          !- X,Y,Z Vertex 2 {m}
  23.1636701633044, 1.67631824732037, 0,  !- X,Y,Z Vertex 3 {m}
  23.1636701633044, 1.67631824732037, 3.047851; !- X,Y,Z Vertex 4 {m}

BuildingSurface:Detailed,
  m SIWall NWA Reversed,                  !- Name
  Wall,                                   !- Surface Type
  BTAP-Int-Wall,                          !- Construction Name
  WILD_ST=Corridor/Transition area other-sch-G_FL=Building Story 2_SCH=G, !- Zone Name
  M Corridor,                             !- Space Name
  Surface,                                !- Outside Boundary Condition
  m SIWall NWA,                           !- Outside Boundary Condition Object
  NoSun,                                  !- Sun Exposure
  NoWind,                                 !- Wind Exposure
  ,                                       !- View Factor to Ground
  ,                                       !- Number of Vertices
  11.5818351633044, 1.67631824732037, 3.047851, !- X,Y,Z Vertex 1 {m}
  11.5818351633044, 1.67631824732037, 0,  !- X,Y,Z Vertex 2 {m}
  0, 1.676318, 0,                         !- X,Y,Z Vertex 3 {m}
  0, 1.676318, 3.047851;                  !- X,Y,Z Vertex 4 {m}

BuildingSurface:Detailed,
  m WWall C,                              !- Name
  Wall,                                   !- Surface Type
  BTAP-Ext-Wall-Mass:U-0.29,              !- Construction Name
  WILD_ST=Corridor/Transition area other-sch-G_FL=Building Story 2_SCH=G, !- Zone Name
  M Corridor,                             !- Space Name
  Outdoors,                               !- Outside Boundary Condition
  ,                                       !- Outside Boundary Condition Object
  SunExposed,                             !- Sun Exposure
  WindExposed,                            !- Wind Exposure
  ,                                       !- View Factor to Ground
  ,                                       !- Number of Vertices
  0, 1.676318, 3.047851,                  !- X,Y,Z Vertex 1 {m}
  0, 1.676318, 0,                         !- X,Y,Z Vertex 2 {m}
  0, 0, 0,                                !- X,Y,Z Vertex 3 {m}
  0, 0, 3.047851;                         !- X,Y,Z Vertex 4 {m}

FenestrationSurface:Detailed,
  m WWall C_FixedWindow,                  !- Name
  Window,                                 !- Surface Type
  BTAP-Ext-FixedWindow:U=0.280 SHGC=0.600, !- Construction Name
  m WWall C,                              !- Building Surface Name
  ,                                       !- Outside Boundary Condition Object
  ,                                       !- View Factor to Ground
  ,                                       !- Frame and Divider Name
  ,                                       !- Multiplier
  ,                                       !- Number of Vertices
  0, 1.650918, 1.80865268243218,          !- X,Y,Z Vertex 1 {m}
  0, 1.650918, 0.762,                     !- X,Y,Z Vertex 2 {m}
  0, 0.0253999999999999, 0.762,           !- X,Y,Z Vertex 3 {m}
  0, 0.0253999999999999, 1.80865268243218; !- X,Y,Z Vertex 4 {m}

ZoneInfiltration:DesignFlowRate,
  M Corridor Infiltration,                !- Name
  M Corridor,                             !- Zone or ZoneList or Space or SpaceList Name
  Always On Discrete,                     !- Schedule Name
  Flow/ExteriorArea,                      !- Design Flow Rate Calculation Method
  ,                                       !- Design Flow Rate {m3/s}
  ,                                       !- Flow Rate per Floor Area {m3/s-m2}
  0.00447586595596712,                    !- Flow Rate per Exterior Surface Area {m3/s-m2}
  ,                                       !- Air Changes per Hour {1/hr}
  0,                                      !- Constant Term Coefficient
  0,                                      !- Temperature Term Coefficient
  0.224,                                  !- Velocity Term Coefficient
  0;                                      !- Velocity Squared Term Coefficient

ZoneControl:Thermostat,
  WILD_ST=Corridor/Transition area other-sch-G_FL=Building Story 2_SCH=G Thermostat, !- Name
  WILD_ST=Corridor/Transition area other-sch-G_FL=Building Story 2_SCH=G, !- Zone or ZoneList Name
  WILD_ST=Corridor/Transition area other-sch-G_FL=Building Story 2_SCH=G Thermostat Schedule, !- Control Type Schedule Name
  ThermostatSetpoint:DualSetpoint,        !- Control 1 Object Type
  Space Function Corridor/Transition area other-sch-G Thermostat 9, !- Control 1 Name
  ,                                       !- Control 2 Object Type
  ,                                       !- Control 2 Name
  ,                                       !- Control 3 Object Type
  ,                                       !- Control 3 Name
  ,                                       !- Control 4 Object Type
  ,                                       !- Control 4 Name
  0;                                      !- Temperature Difference Between Cutout And Setpoint {deltaC}

Schedule:Compact,
  WILD_ST=Corridor/Transition area other-sch-G_FL=Building Story 2_SCH=G Thermostat Schedule, !- Name
  WILD_ST=Corridor/Transition area other-sch-G_FL=Building Story 2_SCH=G Thermostat Schedule Type Limits, !- Schedule Type Limits Name
  Through: 12/31,                         !- Field 1
  For: AllDays,                           !- Field 2
  Until: 24:00,                           !- Field 3
  4;                                      !- Field 4

ScheduleTypeLimits,
  WILD_ST=Corridor/Transition area other-sch-G_FL=Building Story 2_SCH=G Thermostat Schedule Type Limits, !- Name
  0,                                      !- Lower Limit Value {BasedOnField A3}
  4,                                      !- Upper Limit Value {BasedOnField A3}
  DISCRETE;                               !- Numeric Type

ThermostatSetpoint:DualSetpoint,
  Space Function Corridor/Transition area other-sch-G Thermostat 9, !- Name
  NECB-G-Thermostat Setpoint-Heating,     !- Heating Setpoint Temperature Schedule Name
  NECB-G-Thermostat Setpoint-Cooling;     !- Cooling Setpoint Temperature Schedule Name

ZoneHVAC:EquipmentConnections,
  WILD_ST=Corridor/Transition area other-sch-G_FL=Building Story 2_SCH=G, !- Zone Name
  WILD_ST=Corridor/Transition area other-sch-G_FL=Building Story 2_SCH=G Equipment List, !- Zone Conditioning Equipment List Name
  WILD_ST=Corridor/Transition area other-sch-G_FL=Building Story 2_SCH=G Inlet Node List, !- Zone Air Inlet Node or NodeList Name
  ,                                       !- Zone Air Exhaust Node or NodeList Name
  WILD_ST=Corridor/Transition area other-sch-G_FL=Building Story 2_SCH=G Zone Air Node, !- Zone Air Node Name
  WILD_ST=Corridor/Transition area other-sch-G_FL=Building Story 2_SCH=G Return Node List; !- Zone Return Air Node or NodeList Name

NodeList,
  WILD_ST=Corridor/Transition area other-sch-G_FL=Building Story 2_SCH=G Inlet Node List, !- Name
  Air Terminal Single Duct Constant Volume No Reheat 20 Outlet Air Node; !- Node Name 1

NodeList,
  WILD_ST=Corridor/Transition area other-sch-G_FL=Building Story 2_SCH=G Return Node List, !- Name
  WILD_ST=Corridor/Transition area other-sch-G_FL=Building Story 2_SCH=G Return Air Node; !- Node Name 1

AirTerminal:SingleDuct:ConstantVolume:NoReheat,
  Air Terminal Single Duct Constant Volume No Reheat 20, !- Name
  Always On Discrete,                     !- Availability Schedule Name
  Air Terminal Single Duct Constant Volume No Reheat 20 Inlet Air Node, !- Air Inlet Node Name
  Air Terminal Single Duct Constant Volume No Reheat 20 Outlet Air Node, !- Air Outlet Node Name
  AutoSize;                               !- Maximum Air Flow Rate {m3/s}

ZoneHVAC:AirDistributionUnit,
  ADU Air Terminal Single Duct Constant Volume No Reheat 20, !- Name
  Air Terminal Single Duct Constant Volume No Reheat 20 Outlet Air Node, !- Air Distribution Unit Outlet Node Name
  AirTerminal:SingleDuct:ConstantVolume:NoReheat, !- Air Terminal Object Type
  Air Terminal Single Duct Constant Volume No Reheat 20; !- Air Terminal Name

ZoneHVAC:Baseboard:Convective:Electric,
  ZoneHVACBaseboardConvectiveElectric 19, !- Name
  Always On Discrete,                     !- Availability Schedule Name
  ,                                       !- Heating Design Capacity Method
  Autosize,                               !- Heating Design Capacity {W}
  ,                                       !- Heating Design Capacity Per Floor Area {W/m2}
  ,                                       !- Fraction of Autosized Heating Design Capacity
  1;                                      !- Efficiency

ZoneHVAC:EquipmentList,
  WILD_ST=Corridor/Transition area other-sch-G_FL=Building Story 2_SCH=G Equipment List, !- Name
  SequentialLoad,                         !- Load Distribution Scheme
  ZoneHVAC:AirDistributionUnit,           !- Zone Equipment Object Type 1
  ADU Air Terminal Single Duct Constant Volume No Reheat 20, !- Zone Equipment Name 1
  1,                                      !- Zone Equipment Cooling Sequence 1
  1,                                      !- Zone Equipment Heating or No-Load Sequence 1
  ,                                       !- Zone Equipment Sequential Cooling Fraction Schedule Name 1
  ,                                       !- Zone Equipment Sequential Heating Fraction Schedule Name 1
  ZoneHVAC:Baseboard:Convective:Electric, !- Zone Equipment Object Type 2
  ZoneHVACBaseboardConvectiveElectric 19, !- Zone Equipment Name 2
  2,                                      !- Zone Equipment Cooling Sequence 2
  2,                                      !- Zone Equipment Heating or No-Load Sequence 2
  ,                                       !- Zone Equipment Sequential Cooling Fraction Schedule Name 2
  ;                                       !- Zone Equipment Sequential Heating Fraction Schedule Name 2

Sizing:Zone,
  WILD_ST=Corridor/Transition area other-sch-G_FL=Building Story 2_SCH=G, !- Zone or ZoneList Name
  TemperatureDifference,                  !- Zone Cooling Design Supply Air Temperature Input Method
  13,                                     !- Zone Cooling Design Supply Air Temperature {C}
  11,                                     !- Zone Cooling Design Supply Air Temperature Difference {deltaC}
  TemperatureDifference,                  !- Zone Heating Design Supply Air Temperature Input Method
  43,                                     !- Zone Heating Design Supply Air Temperature {C}
  21,                                     !- Zone Heating Design Supply Air Temperature Difference {deltaC}
  0.0085,                                 !- Zone Cooling Design Supply Air Humidity Ratio {kgWater/kgDryAir}
  0.008,                                  !- Zone Heating Design Supply Air Humidity Ratio {kgWater/kgDryAir}
  WILD_ST=Corridor/Transition area other-sch-G_FL=Building Story 2_SCH=G DSOA Space List, !- Design Specification Outdoor Air Object Name
  1.3,                                    !- Zone Heating Sizing Factor
  1.1,                                    !- Zone Cooling Sizing Factor
  DesignDay,                              !- Cooling Design Air Flow Method
  0,                                      !- Cooling Design Air Flow Rate {m3/s}
  0.000762,                               !- Cooling Minimum Air Flow per Zone Floor Area {m3/s-m2}
  0,                                      !- Cooling Minimum Air Flow {m3/s}
  0,                                      !- Cooling Minimum Air Flow Fraction
  DesignDay,                              !- Heating Design Air Flow Method
  0,                                      !- Heating Design Air Flow Rate {m3/s}
  0.002032,                               !- Heating Maximum Air Flow per Zone Floor Area {m3/s-m2}
  0.1415762,                              !- Heating Maximum Air Flow {m3/s}
  0.3,                                    !- Heating Maximum Air Flow Fraction
  ,                                       !- Design Specification Zone Air Distribution Object Name
  No,                                     !- Account for Dedicated Outdoor Air System
  ,                                       !- Dedicated Outdoor Air System Control Strategy
  ,                                       !- Dedicated Outdoor Air Low Setpoint Temperature for Design {C}
  ,                                       !- Dedicated Outdoor Air High Setpoint Temperature for Design {C}
  Sensible Load Only No Latent Load,      !- Zone Load Sizing Method
  HumidityRatioDifference,                !- Zone Latent Cooling Design Supply Air Humidity Ratio Input Method
  ,                                       !- Zone Dehumidification Design Supply Air Humidity Ratio {kgWater/kgDryAir}
  0.005,                                  !- Zone Cooling Design Supply Air Humidity Ratio Difference {kgWater/kgDryAir}
  HumidityRatioDifference,                !- Zone Latent Heating Design Supply Air Humidity Ratio Input Method
  ,                                       !- Zone Humidification Design Supply Air Humidity Ratio {kgWater/kgDryAir}
  0.005,                                  !- Zone Humidification Design Supply Air Humidity Ratio Difference {kgWater/kgDryAir}
  ,                                       !- Zone Humidistat Dehumidification Set Point Schedule Name
  ,                                       !- Zone Humidistat Humidification Set Point Schedule Name
  Coincident;                             !- Type of Space Sum to Use

DesignSpecification:OutdoorAir:SpaceList,
  WILD_ST=Corridor/Transition area other-sch-G_FL=Building Story 2_SCH=G DSOA Space List, !- Name
  M Corridor,                             !- Space Name 1
  Space Function Corridor/Transition area other-sch-G Ventilation; !- Space Design Specification Outdoor Air Object Name 1

Zone,
  WILD_ST=Corridor/Transition area other-sch-G_FL=Building Story 3_SCH=G, !- Name
  -0,                                     !- Direction of Relative North {deg}
  0,                                      !- X Origin {m}
  7.61962839691078,                       !- Y Origin {m}
  6.09570235876431,                       !- Z Origin {m}
  ,                                       !- Type
  1,                                      !- Multiplier
  ,                                       !- Ceiling Height {m}
  ,                                       !- Volume {m3}
  ,                                       !- Floor Area {m2}
  ,                                       !- Zone Inside Convection Algorithm
  ,                                       !- Zone Outside Convection Algorithm
  Yes;                                    !- Part of Total Floor Area

Space,
  T Corridor,                             !- Name
  WILD_ST=Corridor/Transition area other-sch-G_FL=Building Story 3_SCH=G, !- Zone Name
  ,                                       !- Ceiling Height {m}
  177.520639876566,                       !- Volume {m3}
  ,                                       !- Floor Area {m2}
  Space Function Corridor/Transition area other-sch-G; !- Space Type

BuildingSurface:Detailed,
  t EWall C,                              !- Name
  Wall,                                   !- Surface Type
  BTAP-Ext-Wall-Mass:U-0.29,              !- Construction Name
  WILD_ST=Corridor/Transition area other-sch-G_FL=Building Story 3_SCH=G, !- Zone Name
  T Corridor,                             !- Space Name
  Outdoors,                               !- Outside Boundary Condition
  ,                                       !- Outside Boundary Condition Object
  SunExposed,                             !- Sun Exposure
  WindExposed,                            !- Wind Exposure
  ,                                       !- View Factor to Ground
  ,                                       !- Number of Vertices
  34.7455051633044, 0, 3.047851,          !- X,Y,Z Vertex 1 {m}
  34.7455051633044, 0, 0,                 !- X,Y,Z Vertex 2 {m}
  34.7455051633044, 1.676318, 0,          !- X,Y,Z Vertex 3 {m}
  34.7455051633044, 1.676318, 3.047851;   !- X,Y,Z Vertex 4 {m}

FenestrationSurface:Detailed,
  t EWall C_FixedWindow,                  !- Name
  Window,                                 !- Surface Type
  BTAP-Ext-FixedWindow:U=0.280 SHGC=0.600, !- Construction Name
  t EWall C,                              !- Building Surface Name
  ,                                       !- Outside Boundary Condition Object
  ,                                       !- View Factor to Ground
  ,                                       !- Frame and Divider Name
  ,                                       !- Multiplier
  ,                                       !- Number of Vertices
  34.7455051633044, 0.0254, 1.80865268243218, !- X,Y,Z Vertex 1 {m}
  34.7455051633044, 0.0254, 0.762,        !- X,Y,Z Vertex 2 {m}
  34.7455051633044, 1.650918, 0.762,      !- X,Y,Z Vertex 3 {m}
  34.7455051633044, 1.650918, 1.80865268243218; !- X,Y,Z Vertex 4 {m}

BuildingSurface:Detailed,
  t Floor C,                              !- Name
  Floor,                                  !- Surface Type
  BTAP-Int-Wall,                          !- Construction Name
  WILD_ST=Corridor/Transition area other-sch-G_FL=Building Story 3_SCH=G, !- Zone Name
  T Corridor,                             !- Space Name
  Adiabatic,                              !- Outside Boundary Condition
  ,                                       !- Outside Boundary Condition Object
  NoSun,                                  !- Sun Exposure
  NoWind,                                 !- Wind Exposure
  ,                                       !- View Factor to Ground
  ,                                       !- Number of Vertices
  34.7455051633044, 1.676318, 0,          !- X,Y,Z Vertex 1 {m}
  34.7455051633044, 0, 0,                 !- X,Y,Z Vertex 2 {m}
  0, 0, 0,                                !- X,Y,Z Vertex 3 {m}
  0, 1.676318, 0;                         !- X,Y,Z Vertex 4 {m}

BuildingSurface:Detailed,
  t NIWall S1A Reversed,                  !- Name
  Wall,                                   !- Surface Type
  BTAP-Int-Wall,                          !- Construction Name
  WILD_ST=Corridor/Transition area other-sch-G_FL=Building Story 3_SCH=G, !- Zone Name
  T Corridor,                             !- Space Name
  Surface,                                !- Outside Boundary Condition
  t NIWall S1A,                           !- Outside Boundary Condition Object
  NoSun,                                  !- Sun Exposure
  NoWind,                                 !- Wind Exposure
  ,                                       !- View Factor to Ground
  ,                                       !- Number of Vertices
  11.5818351633044, -3.96910780898452e-07, 3.047851, !- X,Y,Z Vertex 1 {m}
  11.5818351633044, -3.96910780898452e-07, 0, !- X,Y,Z Vertex 2 {m}
  23.1636705, 0, 0,                       !- X,Y,Z Vertex 3 {m}
  23.1636705, 0, 3.047851;                !- X,Y,Z Vertex 4 {m}

BuildingSurface:Detailed,
  t NIWall SEA Reversed,                  !- Name
  Wall,                                   !- Surface Type
  BTAP-Int-Wall,                          !- Construction Name
  WILD_ST=Corridor/Transition area other-sch-G_FL=Building Story 3_SCH=G, !- Zone Name
  T Corridor,                             !- Space Name
  Surface,                                !- Outside Boundary Condition
  t NIWall SEA,                           !- Outside Boundary Condition Object
  NoSun,                                  !- Sun Exposure
  NoWind,                                 !- Wind Exposure
  ,                                       !- View Factor to Ground
  ,                                       !- Number of Vertices
  23.1636705, 0, 3.047851,                !- X,Y,Z Vertex 1 {m}
  23.1636705, 0, 0,                       !- X,Y,Z Vertex 2 {m}
  34.7455051633044, 0, 0,                 !- X,Y,Z Vertex 3 {m}
  34.7455051633044, 0, 3.047851;          !- X,Y,Z Vertex 4 {m}

BuildingSurface:Detailed,
  t NIWall SWA Reversed,                  !- Name
  Wall,                                   !- Surface Type
  BTAP-Int-Wall,                          !- Construction Name
  WILD_ST=Corridor/Transition area other-sch-G_FL=Building Story 3_SCH=G, !- Zone Name
  T Corridor,                             !- Space Name
  Surface,                                !- Outside Boundary Condition
  t NIWall SWA,                           !- Outside Boundary Condition Object
  NoSun,                                  !- Sun Exposure
  NoWind,                                 !- Wind Exposure
  ,                                       !- View Factor to Ground
  ,                                       !- Number of Vertices
  0, 0, 3.047851,                         !- X,Y,Z Vertex 1 {m}
  0, 0, 0,                                !- X,Y,Z Vertex 2 {m}
  11.5818351633044, -3.96910780898452e-07, 0, !- X,Y,Z Vertex 3 {m}
  11.5818351633044, -3.96910780898452e-07, 3.047851; !- X,Y,Z Vertex 4 {m}

BuildingSurface:Detailed,
  t Roof C,                               !- Name
  Roof,                                   !- Surface Type
  BTAP-Ext-Roof-Metal:U-0.2,              !- Construction Name
  WILD_ST=Corridor/Transition area other-sch-G_FL=Building Story 3_SCH=G, !- Zone Name
  T Corridor,                             !- Space Name
  Outdoors,                               !- Outside Boundary Condition
  ,                                       !- Outside Boundary Condition Object
  SunExposed,                             !- Sun Exposure
  WindExposed,                            !- Wind Exposure
  ,                                       !- View Factor to Ground
  ,                                       !- Number of Vertices
  34.7455051633044, 0, 3.047851,          !- X,Y,Z Vertex 1 {m}
  34.7455051633044, 1.676318, 3.047851,   !- X,Y,Z Vertex 2 {m}
  0, 1.676318, 3.047851,                  !- X,Y,Z Vertex 3 {m}
  0, 0, 3.047851;                         !- X,Y,Z Vertex 4 {m}

FenestrationSurface:Detailed,
  t Roof C_Skylight,                      !- Name
  Window,                                 !- Surface Type
  BTAP-Ext-Skylights:U=0.241 SHGC=0.600,  !- Construction Name
  t Roof C,                               !- Building Surface Name
  ,                                       !- Outside Boundary Condition Object
  ,                                       !- View Factor to Ground
  ,                                       !- Frame and Divider Name
  1,                                      !- Multiplier
  ,                                       !- Number of Vertices
  19.8296308133244, 0.719625417477493, 3.047851, !- X,Y,Z Vertex 1 {m}
  19.8296308133244, 0.956692582522507, 3.047851, !- X,Y,Z Vertex 2 {m}
  14.9158743499796, 0.956692582522507, 3.047851, !- X,Y,Z Vertex 3 {m}
  14.9158743499796, 0.719625417477493, 3.047851; !- X,Y,Z Vertex 4 {m}

BuildingSurface:Detailed,
  t SIWall N1A Reversed,                  !- Name
  Wall,                                   !- Surface Type
  BTAP-Int-Wall,                          !- Construction Name
  WILD_ST=Corridor/Transition area other-sch-G_FL=Building Story 3_SCH=G, !- Zone Name
  T Corridor,                             !- Space Name
  Surface,                                !- Outside Boundary Condition
  t SIWall N1A,                           !- Outside Boundary Condition Object
  NoSun,                                  !- Sun Exposure
  NoWind,                                 !- Wind Exposure
  ,                                       !- View Factor to Ground
  ,                                       !- Number of Vertices
  23.1636701633044, 1.67631824732037, 3.047851, !- X,Y,Z Vertex 1 {m}
  23.1636701633044, 1.67631824732037, 0,  !- X,Y,Z Vertex 2 {m}
  11.5818351633044, 1.67631824732037, 0,  !- X,Y,Z Vertex 3 {m}
  11.5818351633044, 1.67631824732037, 3.047851; !- X,Y,Z Vertex 4 {m}

BuildingSurface:Detailed,
  t SIWall NEA Reversed,                  !- Name
  Wall,                                   !- Surface Type
  BTAP-Int-Wall,                          !- Construction Name
  WILD_ST=Corridor/Transition area other-sch-G_FL=Building Story 3_SCH=G, !- Zone Name
  T Corridor,                             !- Space Name
  Surface,                                !- Outside Boundary Condition
  t SIWall NEA,                           !- Outside Boundary Condition Object
  NoSun,                                  !- Sun Exposure
  NoWind,                                 !- Wind Exposure
  ,                                       !- View Factor to Ground
  ,                                       !- Number of Vertices
  34.7455051633044, 1.676318, 3.047851,   !- X,Y,Z Vertex 1 {m}
  34.7455051633044, 1.676318, 0,          !- X,Y,Z Vertex 2 {m}
  23.1636701633044, 1.67631824732037, 0,  !- X,Y,Z Vertex 3 {m}
  23.1636701633044, 1.67631824732037, 3.047851; !- X,Y,Z Vertex 4 {m}

BuildingSurface:Detailed,
  t SIWall NWA Reversed,                  !- Name
  Wall,                                   !- Surface Type
  BTAP-Int-Wall,                          !- Construction Name
  WILD_ST=Corridor/Transition area other-sch-G_FL=Building Story 3_SCH=G, !- Zone Name
  T Corridor,                             !- Space Name
  Surface,                                !- Outside Boundary Condition
  t SIWall NWA,                           !- Outside Boundary Condition Object
  NoSun,                                  !- Sun Exposure
  NoWind,                                 !- Wind Exposure
  ,                                       !- View Factor to Ground
  ,                                       !- Number of Vertices
  11.5818351633044, 1.67631824732037, 3.047851, !- X,Y,Z Vertex 1 {m}
  11.5818351633044, 1.67631824732037, 0,  !- X,Y,Z Vertex 2 {m}
  0, 1.67631824732037, 0,                 !- X,Y,Z Vertex 3 {m}
  0, 1.67631824732037, 3.047851;          !- X,Y,Z Vertex 4 {m}

BuildingSurface:Detailed,
  t WWall C,                              !- Name
  Wall,                                   !- Surface Type
  BTAP-Ext-Wall-Mass:U-0.29,              !- Construction Name
  WILD_ST=Corridor/Transition area other-sch-G_FL=Building Story 3_SCH=G, !- Zone Name
  T Corridor,                             !- Space Name
  Outdoors,                               !- Outside Boundary Condition
  ,                                       !- Outside Boundary Condition Object
  SunExposed,                             !- Sun Exposure
  WindExposed,                            !- Wind Exposure
  ,                                       !- View Factor to Ground
  ,                                       !- Number of Vertices
  0, 1.67631824732037, 3.047851,          !- X,Y,Z Vertex 1 {m}
  0, 1.67631824732037, 0,                 !- X,Y,Z Vertex 2 {m}
  0, 0, 0,                                !- X,Y,Z Vertex 3 {m}
  0, 0, 3.047851;                         !- X,Y,Z Vertex 4 {m}

FenestrationSurface:Detailed,
  t WWall C_FixedWindow,                  !- Name
  Window,                                 !- Surface Type
  BTAP-Ext-FixedWindow:U=0.280 SHGC=0.600, !- Construction Name
  t WWall C,                              !- Building Surface Name
  ,                                       !- Outside Boundary Condition Object
  ,                                       !- View Factor to Ground
  ,                                       !- Frame and Divider Name
  ,                                       !- Multiplier
  ,                                       !- Number of Vertices
  0, 1.65091824732037, 1.80865267760629,  !- X,Y,Z Vertex 1 {m}
  0, 1.65091824732037, 0.762,             !- X,Y,Z Vertex 2 {m}
  0, 0.0253999999999999, 0.762,           !- X,Y,Z Vertex 3 {m}
  0, 0.0253999999999999, 1.80865267760629; !- X,Y,Z Vertex 4 {m}

ZoneInfiltration:DesignFlowRate,
  T Corridor Infiltration,                !- Name
  T Corridor,                             !- Zone or ZoneList or Space or SpaceList Name
  Always On Discrete,                     !- Schedule Name
  Flow/ExteriorArea,                      !- Design Flow Rate Calculation Method
  ,                                       !- Design Flow Rate {m3/s}
  ,                                       !- Flow Rate per Floor Area {m3/s-m2}
  0.00447586595596712,                    !- Flow Rate per Exterior Surface Area {m3/s-m2}
  ,                                       !- Air Changes per Hour {1/hr}
  0,                                      !- Constant Term Coefficient
  0,                                      !- Temperature Term Coefficient
  0.224,                                  !- Velocity Term Coefficient
  0;                                      !- Velocity Squared Term Coefficient

ZoneControl:Thermostat,
  WILD_ST=Corridor/Transition area other-sch-G_FL=Building Story 3_SCH=G Thermostat, !- Name
  WILD_ST=Corridor/Transition area other-sch-G_FL=Building Story 3_SCH=G, !- Zone or ZoneList Name
  WILD_ST=Corridor/Transition area other-sch-G_FL=Building Story 3_SCH=G Thermostat Schedule, !- Control Type Schedule Name
  ThermostatSetpoint:DualSetpoint,        !- Control 1 Object Type
  Space Function Corridor/Transition area other-sch-G Thermostat 8, !- Control 1 Name
  ,                                       !- Control 2 Object Type
  ,                                       !- Control 2 Name
  ,                                       !- Control 3 Object Type
  ,                                       !- Control 3 Name
  ,                                       !- Control 4 Object Type
  ,                                       !- Control 4 Name
  0;                                      !- Temperature Difference Between Cutout And Setpoint {deltaC}

Schedule:Compact,
  WILD_ST=Corridor/Transition area other-sch-G_FL=Building Story 3_SCH=G Thermostat Schedule, !- Name
  WILD_ST=Corridor/Transition area other-sch-G_FL=Building Story 3_SCH=G Thermostat Schedule Type Limits, !- Schedule Type Limits Name
  Through: 12/31,                         !- Field 1
  For: AllDays,                           !- Field 2
  Until: 24:00,                           !- Field 3
  4;                                      !- Field 4

ScheduleTypeLimits,
  WILD_ST=Corridor/Transition area other-sch-G_FL=Building Story 3_SCH=G Thermostat Schedule Type Limits, !- Name
  0,                                      !- Lower Limit Value {BasedOnField A3}
  4,                                      !- Upper Limit Value {BasedOnField A3}
  DISCRETE;                               !- Numeric Type

ThermostatSetpoint:DualSetpoint,
  Space Function Corridor/Transition area other-sch-G Thermostat 8, !- Name
  NECB-G-Thermostat Setpoint-Heating,     !- Heating Setpoint Temperature Schedule Name
  NECB-G-Thermostat Setpoint-Cooling;     !- Cooling Setpoint Temperature Schedule Name

ZoneHVAC:EquipmentConnections,
  WILD_ST=Corridor/Transition area other-sch-G_FL=Building Story 3_SCH=G, !- Zone Name
  WILD_ST=Corridor/Transition area other-sch-G_FL=Building Story 3_SCH=G Equipment List, !- Zone Conditioning Equipment List Name
  WILD_ST=Corridor/Transition area other-sch-G_FL=Building Story 3_SCH=G Inlet Node List, !- Zone Air Inlet Node or NodeList Name
  ,                                       !- Zone Air Exhaust Node or NodeList Name
  WILD_ST=Corridor/Transition area other-sch-G_FL=Building Story 3_SCH=G Zone Air Node, !- Zone Air Node Name
  WILD_ST=Corridor/Transition area other-sch-G_FL=Building Story 3_SCH=G Return Node List; !- Zone Return Air Node or NodeList Name

NodeList,
  WILD_ST=Corridor/Transition area other-sch-G_FL=Building Story 3_SCH=G Inlet Node List, !- Name
  Air Terminal Single Duct Constant Volume No Reheat 21 Outlet Air Node; !- Node Name 1

NodeList,
  WILD_ST=Corridor/Transition area other-sch-G_FL=Building Story 3_SCH=G Return Node List, !- Name
  WILD_ST=Corridor/Transition area other-sch-G_FL=Building Story 3_SCH=G Return Air Node; !- Node Name 1

AirTerminal:SingleDuct:ConstantVolume:NoReheat,
  Air Terminal Single Duct Constant Volume No Reheat 21, !- Name
  Always On Discrete,                     !- Availability Schedule Name
  Air Terminal Single Duct Constant Volume No Reheat 21 Inlet Air Node, !- Air Inlet Node Name
  Air Terminal Single Duct Constant Volume No Reheat 21 Outlet Air Node, !- Air Outlet Node Name
  AutoSize;                               !- Maximum Air Flow Rate {m3/s}

ZoneHVAC:AirDistributionUnit,
  ADU Air Terminal Single Duct Constant Volume No Reheat 21, !- Name
  Air Terminal Single Duct Constant Volume No Reheat 21 Outlet Air Node, !- Air Distribution Unit Outlet Node Name
  AirTerminal:SingleDuct:ConstantVolume:NoReheat, !- Air Terminal Object Type
  Air Terminal Single Duct Constant Volume No Reheat 21; !- Air Terminal Name

ZoneHVAC:Baseboard:Convective:Electric,
  ZoneHVACBaseboardConvectiveElectric 20, !- Name
  Always On Discrete,                     !- Availability Schedule Name
  ,                                       !- Heating Design Capacity Method
  Autosize,                               !- Heating Design Capacity {W}
  ,                                       !- Heating Design Capacity Per Floor Area {W/m2}
  ,                                       !- Fraction of Autosized Heating Design Capacity
  1;                                      !- Efficiency

ZoneHVAC:EquipmentList,
  WILD_ST=Corridor/Transition area other-sch-G_FL=Building Story 3_SCH=G Equipment List, !- Name
  SequentialLoad,                         !- Load Distribution Scheme
  ZoneHVAC:AirDistributionUnit,           !- Zone Equipment Object Type 1
  ADU Air Terminal Single Duct Constant Volume No Reheat 21, !- Zone Equipment Name 1
  1,                                      !- Zone Equipment Cooling Sequence 1
  1,                                      !- Zone Equipment Heating or No-Load Sequence 1
  ,                                       !- Zone Equipment Sequential Cooling Fraction Schedule Name 1
  ,                                       !- Zone Equipment Sequential Heating Fraction Schedule Name 1
  ZoneHVAC:Baseboard:Convective:Electric, !- Zone Equipment Object Type 2
  ZoneHVACBaseboardConvectiveElectric 20, !- Zone Equipment Name 2
  2,                                      !- Zone Equipment Cooling Sequence 2
  2,                                      !- Zone Equipment Heating or No-Load Sequence 2
  ,                                       !- Zone Equipment Sequential Cooling Fraction Schedule Name 2
  ;                                       !- Zone Equipment Sequential Heating Fraction Schedule Name 2

Sizing:Zone,
  WILD_ST=Corridor/Transition area other-sch-G_FL=Building Story 3_SCH=G, !- Zone or ZoneList Name
  TemperatureDifference,                  !- Zone Cooling Design Supply Air Temperature Input Method
  13,                                     !- Zone Cooling Design Supply Air Temperature {C}
  11,                                     !- Zone Cooling Design Supply Air Temperature Difference {deltaC}
  TemperatureDifference,                  !- Zone Heating Design Supply Air Temperature Input Method
  43,                                     !- Zone Heating Design Supply Air Temperature {C}
  21,                                     !- Zone Heating Design Supply Air Temperature Difference {deltaC}
  0.0085,                                 !- Zone Cooling Design Supply Air Humidity Ratio {kgWater/kgDryAir}
  0.008,                                  !- Zone Heating Design Supply Air Humidity Ratio {kgWater/kgDryAir}
  WILD_ST=Corridor/Transition area other-sch-G_FL=Building Story 3_SCH=G DSOA Space List, !- Design Specification Outdoor Air Object Name
  1.3,                                    !- Zone Heating Sizing Factor
  1.1,                                    !- Zone Cooling Sizing Factor
  DesignDay,                              !- Cooling Design Air Flow Method
  0,                                      !- Cooling Design Air Flow Rate {m3/s}
  0.000762,                               !- Cooling Minimum Air Flow per Zone Floor Area {m3/s-m2}
  0,                                      !- Cooling Minimum Air Flow {m3/s}
  0,                                      !- Cooling Minimum Air Flow Fraction
  DesignDay,                              !- Heating Design Air Flow Method
  0,                                      !- Heating Design Air Flow Rate {m3/s}
  0.002032,                               !- Heating Maximum Air Flow per Zone Floor Area {m3/s-m2}
  0.1415762,                              !- Heating Maximum Air Flow {m3/s}
  0.3,                                    !- Heating Maximum Air Flow Fraction
  ,                                       !- Design Specification Zone Air Distribution Object Name
  No,                                     !- Account for Dedicated Outdoor Air System
  ,                                       !- Dedicated Outdoor Air System Control Strategy
  ,                                       !- Dedicated Outdoor Air Low Setpoint Temperature for Design {C}
  ,                                       !- Dedicated Outdoor Air High Setpoint Temperature for Design {C}
  Sensible Load Only No Latent Load,      !- Zone Load Sizing Method
  HumidityRatioDifference,                !- Zone Latent Cooling Design Supply Air Humidity Ratio Input Method
  ,                                       !- Zone Dehumidification Design Supply Air Humidity Ratio {kgWater/kgDryAir}
  0.005,                                  !- Zone Cooling Design Supply Air Humidity Ratio Difference {kgWater/kgDryAir}
  HumidityRatioDifference,                !- Zone Latent Heating Design Supply Air Humidity Ratio Input Method
  ,                                       !- Zone Humidification Design Supply Air Humidity Ratio {kgWater/kgDryAir}
  0.005,                                  !- Zone Humidification Design Supply Air Humidity Ratio Difference {kgWater/kgDryAir}
  ,                                       !- Zone Humidistat Dehumidification Set Point Schedule Name
  ,                                       !- Zone Humidistat Humidification Set Point Schedule Name
  Coincident;                             !- Type of Space Sum to Use

DesignSpecification:OutdoorAir:SpaceList,
  WILD_ST=Corridor/Transition area other-sch-G_FL=Building Story 3_SCH=G DSOA Space List, !- Name
  T Corridor,                             !- Space Name 1
  Space Function Corridor/Transition area other-sch-G Ventilation; !- Space Design Specification Outdoor Air Object Name 1

SimulationControl,
  Yes,                                    !- Do Zone Sizing Calculation
  Yes,                                    !- Do System Sizing Calculation
  Yes,                                    !- Do Plant Sizing Calculation
  No,                                     !- Run Simulation for Sizing Periods
  Yes,                                    !- Run Simulation for Weather File Run Periods
  No,                                     !- Do HVAC Sizing Simulation for Sizing Periods
  1;                                      !- Maximum Number of HVAC Sizing Simulation Passes

HeatBalanceAlgorithm,
  ConductionTransferFunction,             !- Algorithm
  200;                                    !- Surface Temperature Upper Limit {C}

RunPeriod,
  Run Period 1,                           !- Name
  1,                                      !- Begin Month
  1,                                      !- Begin Day of Month
  2006,                                   !- Begin Year
  12,                                     !- End Month
  31,                                     !- End Day of Month
  2006,                                   !- End Year
  Sunday,                                 !- Day of Week for Start Day
  No,                                     !- Use Weather File Holidays and Special Days
  No,                                     !- Use Weather File Daylight Saving Period
  Yes,                                    !- Apply Weekend Holiday Rule
  Yes,                                    !- Use Weather File Rain Indicators
  Yes;                                    !- Use Weather File Snow Indicators

ShadowCalculation,
  PolygonClipping,                        !- Shading Calculation Method
  Periodic,                               !- Shading Calculation Update Frequency Method
  20,                                     !- Shading Calculation Update Frequency
  15000,                                  !- Maximum Figures in Shadow Overlap Calculations
  SutherlandHodgman,                      !- Polygon Clipping Algorithm
  512,                                    !- Pixel Counting Resolution
  SimpleSkyDiffuseModeling,               !- Sky Diffuse Modeling Algorithm
  No,                                     !- Output External Shading Calculation Results
  No,                                     !- Disable Self-Shading Within Shading Zone Groups
  No;                                     !- Disable Self-Shading From Shading Zone Groups to Other Zones

SurfaceConvectionAlgorithm:Inside,
  TARP;                                   !- Algorithm

SurfaceConvectionAlgorithm:Outside,
  TARP;                                   !- Algorithm

Sizing:Parameters,
  1.3,                                    !- Heating Sizing Factor
  1.1;                                    !- Cooling Sizing Factor

Output:Table:SummaryReports,
  AllSummary;                             !- Report Name 1

GlobalGeometryRules,
  UpperLeftCorner,                        !- Starting Vertex Position
  Counterclockwise,                       !- Vertex Entry Direction
  Relative,                               !- Coordinate System
  Relative,                               !- Daylighting Reference Point Coordinate System
  Relative;                               !- Rectangular Surface Coordinate System

Material,
  1/2IN Gypsum,                           !- Name
  Smooth,                                 !- Roughness
  0.0127,                                 !- Thickness {m}
  0.16,                                   !- Conductivity {W/m-K}
  784.9,                                  !- Density {kg/m3}
  830.000000000001,                       !- Specific Heat {J/kg-K}
  0.9,                                    !- Thermal Absorptance
  0.4,                                    !- Solar Absorptance
  0.4;                                    !- Visible Absorptance

Material,
  1/2IN Gypsum 1,                         !- Name
  Smooth,                                 !- Roughness
  0.0127,                                 !- Thickness {m}
  0.16,                                   !- Conductivity {W/m-K}
  784.9,                                  !- Density {kg/m3}
  830.000000000001,                       !- Specific Heat {J/kg-K}
  0.9,                                    !- Thermal Absorptance
  0.4,                                    !- Solar Absorptance
  0.4;                                    !- Visible Absorptance

Material,
  100mm Normalweight concrete floor,      !- Name
  MediumSmooth,                           !- Roughness
  0.1016,                                 !- Thickness {m}
  2.31,                                   !- Conductivity {W/m-K}
  2322,                                   !- Density {kg/m3}
  832,                                    !- Specific Heat {J/kg-K}
  0.9,                                    !- Thermal Absorptance
  0.7,                                    !- Solar Absorptance
  0.7;                                    !- Visible Absorptance

Material,
  100mm Normalweight concrete floor 1,    !- Name
  MediumSmooth,                           !- Roughness
  0.1016,                                 !- Thickness {m}
  2.31,                                   !- Conductivity {W/m-K}
  2322,                                   !- Density {kg/m3}
  832,                                    !- Specific Heat {J/kg-K}
  0.9,                                    !- Thermal Absorptance
  0.7,                                    !- Solar Absorptance
  0.7;                                    !- Visible Absorptance

Material,
  1IN Stucco,                             !- Name
  Smooth,                                 !- Roughness
  0.0253,                                 !- Thickness {m}
  0.691799999999999,                      !- Conductivity {W/m-K}
  1858,                                   !- Density {kg/m3}
  836.999999999999,                       !- Specific Heat {J/kg-K}
  0.9,                                    !- Thermal Absorptance
  0.7,                                    !- Solar Absorptance
  0.92;                                   !- Visible Absorptance

Material,
  1IN Stucco 1,                           !- Name
  Smooth,                                 !- Roughness
  0.0253,                                 !- Thickness {m}
  0.691799999999999,                      !- Conductivity {W/m-K}
  1858,                                   !- Density {kg/m3}
  836.999999999999,                       !- Specific Heat {J/kg-K}
  0.9,                                    !- Thermal Absorptance
  0.7,                                    !- Solar Absorptance
  0.92;                                   !- Visible Absorptance

Material,
  4 in. Normalweight Concrete Floor,      !- Name
  MediumRough,                            !- Roughness
  0.1016,                                 !- Thickness {m}
  2.31,                                   !- Conductivity {W/m-K}
  2321.99999999999,                       !- Density {kg/m3}
  831.999999999997,                       !- Specific Heat {J/kg-K}
  0.9,                                    !- Thermal Absorptance
  0.7,                                    !- Solar Absorptance
  0.7;                                    !- Visible Absorptance

Material,
  4 in. Normalweight Concrete Floor 1,    !- Name
  MediumRough,                            !- Roughness
  0.1016,                                 !- Thickness {m}
  2.31,                                   !- Conductivity {W/m-K}
  2321.99999999999,                       !- Density {kg/m3}
  831.999999999997,                       !- Specific Heat {J/kg-K}
  0.9,                                    !- Thermal Absorptance
  0.7,                                    !- Solar Absorptance
  0.7;                                    !- Visible Absorptance

Material,
  6 in. Normalweight Concrete Floor,      !- Name
  MediumRough,                            !- Roughness
  0.1524,                                 !- Thickness {m}
  2.31,                                   !- Conductivity {W/m-K}
  2321.99999999999,                       !- Density {kg/m3}
  831.999999999997,                       !- Specific Heat {J/kg-K}
  0.9,                                    !- Thermal Absorptance
  0.7,                                    !- Solar Absorptance
  0.7;                                    !- Visible Absorptance

Material,
  6 in. Normalweight Concrete Floor 1,    !- Name
  MediumRough,                            !- Roughness
  0.1524,                                 !- Thickness {m}
  2.31,                                   !- Conductivity {W/m-K}
  2321.99999999999,                       !- Density {kg/m3}
  831.999999999997,                       !- Specific Heat {J/kg-K}
  0.9,                                    !- Thermal Absorptance
  0.7,                                    !- Solar Absorptance
  0.7;                                    !- Visible Absorptance

Material,
  6 in. Normalweight Concrete Floor 2,    !- Name
  MediumRough,                            !- Roughness
  0.1524,                                 !- Thickness {m}
  2.31,                                   !- Conductivity {W/m-K}
  2321.99999999999,                       !- Density {kg/m3}
  831.999999999997,                       !- Specific Heat {J/kg-K}
  0.9,                                    !- Thermal Absorptance
  0.7,                                    !- Solar Absorptance
  0.7;                                    !- Visible Absorptance

Material,
  6 in. Normalweight Concrete Floor 3,    !- Name
  MediumRough,                            !- Roughness
  0.1524,                                 !- Thickness {m}
  2.31,                                   !- Conductivity {W/m-K}
  2321.99999999999,                       !- Density {kg/m3}
  831.999999999997,                       !- Specific Heat {J/kg-K}
  0.9,                                    !- Thermal Absorptance
  0.7,                                    !- Solar Absorptance
  0.7;                                    !- Visible Absorptance

Material,
  8IN CONCRETE HW RefBldg,                !- Name
  Rough,                                  !- Roughness
  0.2032,                                 !- Thickness {m}
  1.311,                                  !- Conductivity {W/m-K}
  2240,                                   !- Density {kg/m3}
  836.800000000001,                       !- Specific Heat {J/kg-K}
  0.9,                                    !- Thermal Absorptance
  0.7,                                    !- Solar Absorptance
  0.7;                                    !- Visible Absorptance

Material,
  8IN CONCRETE HW RefBldg 1,              !- Name
  Rough,                                  !- Roughness
  0.2032,                                 !- Thickness {m}
  1.311,                                  !- Conductivity {W/m-K}
  2240,                                   !- Density {kg/m3}
  836.800000000001,                       !- Specific Heat {J/kg-K}
  0.9,                                    !- Thermal Absorptance
  0.7,                                    !- Solar Absorptance
  0.7;                                    !- Visible Absorptance

Material,
  Expanded Polystyrene,                   !- Name
  MediumSmooth,                           !- Roughness
  0.0363958681740979,                     !- Thickness {m}
  0.029,                                  !- Conductivity {W/m-K}
  29,                                     !- Density {kg/m3}
  1210,                                   !- Specific Heat {J/kg-K}
  0.9,                                    !- Thermal Absorptance
  0.7,                                    !- Solar Absorptance
  0.7;                                    !- Visible Absorptance

Material,
  F08 Metal surface,                      !- Name
  Smooth,                                 !- Roughness
  0.0008,                                 !- Thickness {m}
  45.2800000000001,                       !- Conductivity {W/m-K}
  7823.99999999999,                       !- Density {kg/m3}
  500,                                    !- Specific Heat {J/kg-K}
  0.9,                                    !- Thermal Absorptance
  0.7,                                    !- Solar Absorptance
  0.7;                                    !- Visible Absorptance

Material,
  F08 Metal surface 1,                    !- Name
  Smooth,                                 !- Roughness
  0.0008,                                 !- Thickness {m}
  45.2800000000001,                       !- Conductivity {W/m-K}
  7823.99999999999,                       !- Density {kg/m3}
  500,                                    !- Specific Heat {J/kg-K}
  0.9,                                    !- Thermal Absorptance
  0.7,                                    !- Solar Absorptance
  0.7;                                    !- Visible Absorptance

Material,
  G01 13mm gypsum board,                  !- Name
  Smooth,                                 !- Roughness
  0.0127,                                 !- Thickness {m}
  0.16,                                   !- Conductivity {W/m-K}
  800,                                    !- Density {kg/m3}
  1090,                                   !- Specific Heat {J/kg-K}
  0.9,                                    !- Thermal Absorptance
  0.7,                                    !- Solar Absorptance
  0.5;                                    !- Visible Absorptance

Material,
  G01 13mm gypsum board 1,                !- Name
  Smooth,                                 !- Roughness
  0.0127,                                 !- Thickness {m}
  0.16,                                   !- Conductivity {W/m-K}
  800,                                    !- Density {kg/m3}
  1090,                                   !- Specific Heat {J/kg-K}
  0.9,                                    !- Thermal Absorptance
  0.7,                                    !- Solar Absorptance
  0.5;                                    !- Visible Absorptance

Material,
  G05 25mm wood,                          !- Name
  MediumSmooth,                           !- Roughness
  0.0254,                                 !- Thickness {m}
  0.15,                                   !- Conductivity {W/m-K}
  608,                                    !- Density {kg/m3}
  1630,                                   !- Specific Heat {J/kg-K}
  0.9,                                    !- Thermal Absorptance
  0.5,                                    !- Solar Absorptance
  0.5;                                    !- Visible Absorptance

Material,
  M10 200mm concrete block basement wall, !- Name
  MediumRough,                            !- Roughness
  0.2032,                                 !- Thickness {m}
  1.326,                                  !- Conductivity {W/m-K}
  1842,                                   !- Density {kg/m3}
  912,                                    !- Specific Heat {J/kg-K}
  0.9,                                    !- Thermal Absorptance
  0.7,                                    !- Solar Absorptance
  0.7;                                    !- Visible Absorptance

Material,
  Metal Roof Surface,                     !- Name
  Smooth,                                 !- Roughness
  0.000799999999999998,                   !- Thickness {m}
  45.2799999999999,                       !- Conductivity {W/m-K}
  7823.99999999999,                       !- Density {kg/m3}
  499.999999999996,                       !- Specific Heat {J/kg-K}
  0.9,                                    !- Thermal Absorptance
  0.7,                                    !- Solar Absorptance
  0.7;                                    !- Visible Absorptance

Material,
  Metal Roof Surface 1,                   !- Name
  Smooth,                                 !- Roughness
  0.000799999999999998,                   !- Thickness {m}
  45.2799999999999,                       !- Conductivity {W/m-K}
  7823.99999999999,                       !- Density {kg/m3}
  499.999999999996,                       !- Specific Heat {J/kg-K}
  0.9,                                    !- Thermal Absorptance
  0.7,                                    !- Solar Absorptance
  0.7;                                    !- Visible Absorptance

Material:NoMass,
  CP02 CARPET PAD,                        !- Name
  VeryRough,                              !- Roughness
  0.21648,                                !- Thermal Resistance {m2-K/W}
  0.9,                                    !- Thermal Absorptance
  0.7,                                    !- Solar Absorptance
  0.8;                                    !- Visible Absorptance

Material:NoMass,
  Nonres_Floor_Insulation,                !- Name
  MediumSmooth,                           !- Roughness
  2.88291975297193,                       !- Thermal Resistance {m2-K/W}
  0.9,                                    !- Thermal Absorptance
  0.7,                                    !- Solar Absorptance
  0.7;                                    !- Visible Absorptance

Material:NoMass,
  Typical Carpet Pad,                     !- Name
  Smooth,                                 !- Roughness
  0.216479986995276,                      !- Thermal Resistance {m2-K/W}
  0.9,                                    !- Thermal Absorptance
  0.7,                                    !- Solar Absorptance
  0.8;                                    !- Visible Absorptance

Material:NoMass,
  Typical Carpet Pad 1,                   !- Name
  Smooth,                                 !- Roughness
  0.216479986995276,                      !- Thermal Resistance {m2-K/W}
  0.9,                                    !- Thermal Absorptance
  0.7,                                    !- Solar Absorptance
  0.8;                                    !- Visible Absorptance

Material:NoMass,
  Typical Carpet Pad 2,                   !- Name
  Smooth,                                 !- Roughness
  1.25502993703786,                       !- Thermal Resistance {m2-K/W}
  0.9,                                    !- Thermal Absorptance
  0.7,                                    !- Solar Absorptance
  0.8;                                    !- Visible Absorptance

Material:NoMass,
  Typical Carpet Pad 3,                   !- Name
  Smooth,                                 !- Roughness
  3.45515273458935,                       !- Thermal Resistance {m2-K/W}
  0.9,                                    !- Thermal Absorptance
  0.7,                                    !- Solar Absorptance
  0.8;                                    !- Visible Absorptance

Material:NoMass,
  Typical Carpet Pad 4,                   !- Name
  Smooth,                                 !- Roughness
  3.45515273458935,                       !- Thermal Resistance {m2-K/W}
  0.9,                                    !- Thermal Absorptance
  0.7,                                    !- Solar Absorptance
  0.8;                                    !- Visible Absorptance

Material:NoMass,
  Typical Insulation,                     !- Name
  Smooth,                                 !- Roughness
  0.101874652714525,                      !- Thermal Resistance {m2-K/W}
  0.9,                                    !- Thermal Absorptance
  0.7,                                    !- Solar Absorptance
  0.7;                                    !- Visible Absorptance

Material:NoMass,
  Typical Insulation 1,                   !- Name
  Smooth,                                 !- Roughness
  6.98591414061624,                       !- Thermal Resistance {m2-K/W}
  0.9,                                    !- Thermal Absorptance
  0.7,                                    !- Solar Absorptance
  0.7;                                    !- Visible Absorptance

Material:NoMass,
  Typical Insulation 2,                   !- Name
  Smooth,                                 !- Roughness
  3.17733341258058,                       !- Thermal Resistance {m2-K/W}
  0.9,                                    !- Thermal Absorptance
  0.7,                                    !- Solar Absorptance
  0.7;                                    !- Visible Absorptance

Material:NoMass,
  Typical Insulation 3,                   !- Name
  Smooth,                                 !- Roughness
  4.99998233215548,                       !- Thermal Resistance {m2-K/W}
  0.9,                                    !- Thermal Absorptance
  0.7,                                    !- Solar Absorptance
  0.7;                                    !- Visible Absorptance

Material:NoMass,
  Typical Insulation 4,                   !- Name
  Smooth,                                 !- Roughness
  0.578017014236402,                      !- Thermal Resistance {m2-K/W}
  0.9,                                    !- Thermal Absorptance
  0.7,                                    !- Solar Absorptance
  0.7;                                    !- Visible Absorptance

Material:NoMass,
  Typical Insulation 5,                   !- Name
  Smooth,                                 !- Roughness
  0.578034682080925,                      !- Thermal Resistance {m2-K/W}
  0.9,                                    !- Thermal Absorptance
  0.7,                                    !- Solar Absorptance
  0.7;                                    !- Visible Absorptance

WindowMaterial:SimpleGlazingSystem,
  SimpleGlazing,                          !- Name
  2.2,                                    !- U-Factor {W/m2-K}
  0.6,                                    !- Solar Heat Gain Coefficient
  0.21;                                   !- Visible Transmittance

WindowMaterial:SimpleGlazingSystem,
  SimpleGlazing:U=0.173 SHGC=0.600,       !- Name
  1.73,                                   !- U-Factor {W/m2-K}
  0.6,                                    !- Solar Heat Gain Coefficient
  0.21;                                   !- Visible Transmittance

WindowMaterial:SimpleGlazingSystem,
  SimpleGlazing:U=0.241 SHGC=0.600,       !- Name
  2.41,                                   !- U-Factor {W/m2-K}
  0.6,                                    !- Solar Heat Gain Coefficient
  0.21;                                   !- Visible Transmittance

WindowMaterial:SimpleGlazingSystem,
  SimpleGlazing:U=0.280 SHGC=0.600,       !- Name
  2.8,                                    !- U-Factor {W/m2-K}
  0.6,                                    !- Solar Heat Gain Coefficient
  0.21;                                   !- Visible Transmittance

Construction,
  Basement Floor construction,            !- Name
  M10 200mm concrete block basement wall, !- Layer 1
  CP02 CARPET PAD;                        !- Layer 2

Construction,
  Basement Wall construction,             !- Name
  M10 200mm concrete block basement wall; !- Layer 1

Construction,
  BTAP-Ext-DaylightDiffuser,              !- Name
  SimpleGlazing;                          !- Layer 1

Construction,
  BTAP-Ext-DaylightDiffuser:U=0.241 SHGC=0.600, !- Name
  SimpleGlazing:U=0.241 SHGC=0.600;       !- Layer 1

Construction,
  BTAP-Ext-DaylightDomes,                 !- Name
  SimpleGlazing;                          !- Layer 1

Construction,
  BTAP-Ext-DaylightDomes:U=0.241 SHGC=0.600, !- Name
  SimpleGlazing:U=0.241 SHGC=0.600;       !- Layer 1

Construction,
  BTAP-Ext-Door,                          !- Name
  F08 Metal surface,                      !- Layer 1
  Typical Insulation;                     !- Layer 2

Construction,
  BTAP-Ext-Door:U-1.73,                   !- Name
  F08 Metal surface 1,                    !- Layer 1
  Typical Insulation 4;                   !- Layer 2

Construction,
  BTAP-Ext-FixedWindow,                   !- Name
  SimpleGlazing;                          !- Layer 1

Construction,
  BTAP-Ext-FixedWindow:U=0.280 SHGC=0.600, !- Name
  SimpleGlazing:U=0.280 SHGC=0.600;       !- Layer 1

Construction,
  BTAP-Ext-Floor-Mass,                    !- Name
  Typical Insulation,                     !- Layer 1
  4 in. Normalweight Concrete Floor,      !- Layer 2
  Typical Carpet Pad;                     !- Layer 3

Construction,
  BTAP-Ext-Floor-Mass:U-0.138,            !- Name
  Typical Insulation 1,                   !- Layer 1
  4 in. Normalweight Concrete Floor 1,    !- Layer 2
  Typical Carpet Pad 1;                   !- Layer 3

Construction,
  BTAP-Ext-GlassDoors,                    !- Name
  SimpleGlazing;                          !- Layer 1

Construction,
  BTAP-Ext-GlassDoors:U=0.173 SHGC=0.600, !- Name
  SimpleGlazing:U=0.173 SHGC=0.600;       !- Layer 1

Construction,
  BTAP-Ext-OverHeadDoor,                  !- Name
  Typical Insulation;                     !- Layer 1

Construction,
  BTAP-Ext-OverHeadDoor:U-1.73,           !- Name
  Typical Insulation 5;                   !- Layer 1

Construction,
  BTAP-Ext-Roof-Metal,                    !- Name
  Metal Roof Surface,                     !- Layer 1
  Typical Insulation;                     !- Layer 2

Construction,
  BTAP-Ext-Roof-Metal:U-0.2,              !- Name
  Metal Roof Surface 1,                   !- Layer 1
  Typical Insulation 3;                   !- Layer 2

Construction,
  BTAP-Ext-Skylights,                     !- Name
  SimpleGlazing;                          !- Layer 1

Construction,
  BTAP-Ext-Skylights:U=0.241 SHGC=0.600,  !- Name
  SimpleGlazing:U=0.241 SHGC=0.600;       !- Layer 1

Construction,
  BTAP-Ext-Wall-Mass,                     !- Name
  1IN Stucco,                             !- Layer 1
  8IN CONCRETE HW RefBldg,                !- Layer 2
  Typical Insulation,                     !- Layer 3
  1/2IN Gypsum;                           !- Layer 4

Construction,
  BTAP-Ext-Wall-Mass:U-0.29,              !- Name
  1IN Stucco 1,                           !- Layer 1
  8IN CONCRETE HW RefBldg 1,              !- Layer 2
  Typical Insulation 2,                   !- Layer 3
  1/2IN Gypsum 1;                         !- Layer 4

Construction,
  BTAP-Grnd-Floor-Mass,                   !- Name
  6 in. Normalweight Concrete Floor,      !- Layer 1
  Typical Carpet Pad;                     !- Layer 2

Construction,
  BTAP-Grnd-Floor-Mass:U-0.757,           !- Name
  6 in. Normalweight Concrete Floor 1,    !- Layer 1
  Typical Carpet Pad 2;                   !- Layer 2

Construction,
  BTAP-Grnd-Floor-Mass:U-0.757_std,       !- Name
  6 in. Normalweight Concrete Floor 1,    !- Layer 1
  Expanded Polystyrene;                   !- Layer 2

Construction,
  BTAP-Grnd-Roof-Mass,                    !- Name
  6 in. Normalweight Concrete Floor,      !- Layer 1
  Typical Carpet Pad;                     !- Layer 2

Construction,
  BTAP-Grnd-Roof-Mass:U-0.284,            !- Name
  6 in. Normalweight Concrete Floor 3,    !- Layer 1
  Typical Carpet Pad 4;                   !- Layer 2

Construction,
  BTAP-Grnd-Wall-Mass,                    !- Name
  6 in. Normalweight Concrete Floor,      !- Layer 1
  Typical Carpet Pad;                     !- Layer 2

Construction,
  BTAP-Grnd-Wall-Mass:U-0.284,            !- Name
  6 in. Normalweight Concrete Floor 2,    !- Layer 1
  Typical Carpet Pad 3;                   !- Layer 2

Construction,
  BTAP-Int-Ceiling,                       !- Name
  Typical Carpet Pad,                     !- Layer 1
  100mm Normalweight concrete floor 1;    !- Layer 2

Construction,
  BTAP-Int-Door,                          !- Name
  G05 25mm wood;                          !- Layer 1

Construction,
  BTAP-Int-Floor,                         !- Name
  100mm Normalweight concrete floor 1,    !- Layer 1
  Typical Carpet Pad;                     !- Layer 2

Construction,
  BTAP-Int-Partition,                     !- Name
  G05 25mm wood;                          !- Layer 1

Construction,
  BTAP-Int-Wall,                          !- Name
  G01 13mm gypsum board 1,                !- Layer 1
  G01 13mm gypsum board 1;                !- Layer 2

Construction,
  BTAP-Int-Window,                        !- Name
  SimpleGlazing;                          !- Layer 1

Construction,
  Floor Adiabatic construction,           !- Name
  CP02 CARPET PAD,                        !- Layer 1
  100mm Normalweight concrete floor,      !- Layer 2
  Nonres_Floor_Insulation;                !- Layer 3

Construction,
  Wall Adiabatic construction,            !- Name
  G01 13mm gypsum board,                  !- Layer 1
  G01 13mm gypsum board;                  !- Layer 2

Schedule:Constant,
  Always On Continuous,                   !- Name
  Fractional 1,                           !- Schedule Type Limits Name
  1;                                      !- Hourly Value

ScheduleTypeLimits,
  Always Off Discrete Limits,             !- Name
  0,                                      !- Lower Limit Value {BasedOnField A3}
  1,                                      !- Upper Limit Value {BasedOnField A3}
  Discrete,                               !- Numeric Type
  availability;                           !- Unit Type

ScheduleTypeLimits,
  Always On Discrete Limits,              !- Name
  0,                                      !- Lower Limit Value {BasedOnField A3}
  1,                                      !- Upper Limit Value {BasedOnField A3}
  Discrete,                               !- Numeric Type
  availability;                           !- Unit Type

ScheduleTypeLimits,
  Fractional 1,                           !- Name
  0,                                      !- Lower Limit Value {BasedOnField A3}
  1,                                      !- Upper Limit Value {BasedOnField A3}
  Continuous;                             !- Numeric Type

ScheduleTypeLimits,
  OnOff,                                  !- Name
  0,                                      !- Lower Limit Value {BasedOnField A3}
  1,                                      !- Upper Limit Value {BasedOnField A3}
  Discrete,                               !- Numeric Type
  availability;                           !- Unit Type

ScheduleTypeLimits,
  OnOff 1,                                !- Name
  0,                                      !- Lower Limit Value {BasedOnField A3}
  1,                                      !- Upper Limit Value {BasedOnField A3}
  Discrete,                               !- Numeric Type
  availability;                           !- Unit Type

ScheduleTypeLimits,
  OnOff 2,                                !- Name
  0,                                      !- Lower Limit Value {BasedOnField A3}
  1,                                      !- Upper Limit Value {BasedOnField A3}
  Discrete,                               !- Numeric Type
  availability;                           !- Unit Type

ScheduleTypeLimits,
  ON_OFF,                                 !- Name
  0,                                      !- Lower Limit Value {BasedOnField A3}
  1,                                      !- Upper Limit Value {BasedOnField A3}
  DISCRETE,                               !- Numeric Type
  dimensionless;                          !- Unit Type

ScheduleTypeLimits,
  Temperature Schedule Type Limits,       !- Name
  0,                                      !- Lower Limit Value {BasedOnField A3}
  100,                                    !- Upper Limit Value {BasedOnField A3}
  Continuous,                             !- Numeric Type
  temperature;                            !- Unit Type

ScheduleTypeLimits,
  Temperature Schedule Type Limits 1,     !- Name
  0,                                      !- Lower Limit Value {BasedOnField A3}
  100,                                    !- Upper Limit Value {BasedOnField A3}
  Continuous,                             !- Numeric Type
  temperature;                            !- Unit Type

Schedule:Day:Interval,
  Economizer Max OA Fraction 100 pct Default, !- Name
  ,                                       !- Schedule Type Limits Name
  No,                                     !- Interpolate to Timestep
  24:00,                                  !- Time 1 {hh:mm}
  1;                                      !- Value Until Time 1

Schedule:Day:Interval,
  Fraction Latent - 0.05 Default,         !- Name
  Fractional,                             !- Schedule Type Limits Name
  No,                                     !- Interpolate to Timestep
  24:00,                                  !- Time 1 {hh:mm}
  0.05;                                   !- Value Until Time 1

Schedule:Day:Interval,
  Fraction Sensible - 0.2 Default,        !- Name
  Fractional,                             !- Schedule Type Limits Name
  No,                                     !- Interpolate to Timestep
  24:00,                                  !- Time 1 {hh:mm}
  0.2;                                    !- Value Until Time 1

Schedule:Day:Interval,
  Makeup Air Unit Supply Air Temp Default, !- Name
  Temperature,                            !- Schedule Type Limits Name
  No,                                     !- Interpolate to Timestep
  24:00,                                  !- Time 1 {hh:mm}
  20;                                     !- Value Until Time 1

Schedule:Day:Interval,
  Mixed Water At Faucet Temp - 140F Default, !- Name
  Temperature,                            !- Schedule Type Limits Name
  No,                                     !- Interpolate to Timestep
  24:00,                                  !- Time 1 {hh:mm}
  60;                                     !- Value Until Time 1

Schedule:Day:Interval,
  NECB-G-Service Water Heating Default,   !- Name
  Fractional,                             !- Schedule Type Limits Name
  No,                                     !- Interpolate to Timestep
  01:00,                                  !- Time 1 {hh:mm}
  0.1,                                    !- Value Until Time 1
  06:00,                                  !- Time 2 {hh:mm}
  0.05,                                   !- Value Until Time 2
  07:00,                                  !- Time 3 {hh:mm}
  0.2,                                    !- Value Until Time 3
  08:00,                                  !- Time 4 {hh:mm}
  0.8,                                    !- Value Until Time 4
  09:00,                                  !- Time 5 {hh:mm}
  0.7,                                    !- Value Until Time 5
  10:00,                                  !- Time 6 {hh:mm}
  0.5,                                    !- Value Until Time 6
  11:00,                                  !- Time 7 {hh:mm}
  0.4,                                    !- Value Until Time 7
  14:00,                                  !- Time 8 {hh:mm}
  0.2,                                    !- Value Until Time 8
  15:00,                                  !- Time 9 {hh:mm}
  0.3,                                    !- Value Until Time 9
  17:00,                                  !- Time 10 {hh:mm}
  0.5,                                    !- Value Until Time 10
  19:00,                                  !- Time 11 {hh:mm}
  0.7,                                    !- Value Until Time 11
  21:00,                                  !- Time 12 {hh:mm}
  0.4,                                    !- Value Until Time 12
  23:00,                                  !- Time 13 {hh:mm}
  0.2,                                    !- Value Until Time 13
  24:00,                                  !- Time 14 {hh:mm}
  0.1;                                    !- Value Until Time 14

Schedule:Day:Interval,
  NECB-G-Service Water Heating Default|Wkdy Day, !- Name
  Fractional,                             !- Schedule Type Limits Name
  No,                                     !- Interpolate to Timestep
  01:00,                                  !- Time 1 {hh:mm}
  0.1,                                    !- Value Until Time 1
  06:00,                                  !- Time 2 {hh:mm}
  0.05,                                   !- Value Until Time 2
  07:00,                                  !- Time 3 {hh:mm}
  0.2,                                    !- Value Until Time 3
  08:00,                                  !- Time 4 {hh:mm}
  0.8,                                    !- Value Until Time 4
  09:00,                                  !- Time 5 {hh:mm}
  0.7,                                    !- Value Until Time 5
  10:00,                                  !- Time 6 {hh:mm}
  0.5,                                    !- Value Until Time 6
  11:00,                                  !- Time 7 {hh:mm}
  0.4,                                    !- Value Until Time 7
  14:00,                                  !- Time 8 {hh:mm}
  0.2,                                    !- Value Until Time 8
  15:00,                                  !- Time 9 {hh:mm}
  0.3,                                    !- Value Until Time 9
  17:00,                                  !- Time 10 {hh:mm}
  0.5,                                    !- Value Until Time 10
  19:00,                                  !- Time 11 {hh:mm}
  0.7,                                    !- Value Until Time 11
  21:00,                                  !- Time 12 {hh:mm}
  0.4,                                    !- Value Until Time 12
  23:00,                                  !- Time 13 {hh:mm}
  0.2,                                    !- Value Until Time 13
  24:00,                                  !- Time 14 {hh:mm}
  0.1;                                    !- Value Until Time 14

Schedule:Day:Interval,
  NECB-G-Service Water Heating Sat Day,   !- Name
  Fractional,                             !- Schedule Type Limits Name
  No,                                     !- Interpolate to Timestep
  01:00,                                  !- Time 1 {hh:mm}
  0.1,                                    !- Value Until Time 1
  07:00,                                  !- Time 2 {hh:mm}
  0.05,                                   !- Value Until Time 2
  08:00,                                  !- Time 3 {hh:mm}
  0.2,                                    !- Value Until Time 3
  11:00,                                  !- Time 4 {hh:mm}
  0.5,                                    !- Value Until Time 4
  15:00,                                  !- Time 5 {hh:mm}
  0.3,                                    !- Value Until Time 5
  16:00,                                  !- Time 6 {hh:mm}
  0.7,                                    !- Value Until Time 6
  17:00,                                  !- Time 7 {hh:mm}
  0.9,                                    !- Value Until Time 7
  19:00,                                  !- Time 8 {hh:mm}
  0.7,                                    !- Value Until Time 8
  20:00,                                  !- Time 9 {hh:mm}
  0.6,                                    !- Value Until Time 9
  21:00,                                  !- Time 10 {hh:mm}
  0.5,                                    !- Value Until Time 10
  22:00,                                  !- Time 11 {hh:mm}
  0.4,                                    !- Value Until Time 11
  23:00,                                  !- Time 12 {hh:mm}
  0.3,                                    !- Value Until Time 12
  24:00,                                  !- Time 13 {hh:mm}
  0.2;                                    !- Value Until Time 13

Schedule:Day:Interval,
  NECB-G-Service Water Heating Sun|Hol Day, !- Name
  Fractional,                             !- Schedule Type Limits Name
  No,                                     !- Interpolate to Timestep
  01:00,                                  !- Time 1 {hh:mm}
  0.1,                                    !- Value Until Time 1
  08:00,                                  !- Time 2 {hh:mm}
  0.05,                                   !- Value Until Time 2
  09:00,                                  !- Time 3 {hh:mm}
  0.2,                                    !- Value Until Time 3
  11:00,                                  !- Time 4 {hh:mm}
  0.3,                                    !- Value Until Time 4
  13:00,                                  !- Time 5 {hh:mm}
  0.2,                                    !- Value Until Time 5
  14:00,                                  !- Time 6 {hh:mm}
  0.3,                                    !- Value Until Time 6
  15:00,                                  !- Time 7 {hh:mm}
  0.4,                                    !- Value Until Time 7
  16:00,                                  !- Time 8 {hh:mm}
  0.5,                                    !- Value Until Time 8
  17:00,                                  !- Time 9 {hh:mm}
  0.6,                                    !- Value Until Time 9
  18:00,                                  !- Time 10 {hh:mm}
  0.7,                                    !- Value Until Time 10
  19:00,                                  !- Time 11 {hh:mm}
  0.4,                                    !- Value Until Time 11
  20:00,                                  !- Time 12 {hh:mm}
  0.3,                                    !- Value Until Time 12
  24:00,                                  !- Time 13 {hh:mm}
  0.2;                                    !- Value Until Time 13

Schedule:Day:Interval,
  satON_OFF_ALWAYS_OFF,                   !- Name
  ON_OFF,                                 !- Schedule Type Limits Name
  No,                                     !- Interpolate to Timestep
  01:00,                                  !- Time 1 {hh:mm}
  0,                                      !- Value Until Time 1
  02:00,                                  !- Time 2 {hh:mm}
  0,                                      !- Value Until Time 2
  03:00,                                  !- Time 3 {hh:mm}
  0,                                      !- Value Until Time 3
  04:00,                                  !- Time 4 {hh:mm}
  0,                                      !- Value Until Time 4
  05:00,                                  !- Time 5 {hh:mm}
  0,                                      !- Value Until Time 5
  06:00,                                  !- Time 6 {hh:mm}
  0,                                      !- Value Until Time 6
  07:00,                                  !- Time 7 {hh:mm}
  0,                                      !- Value Until Time 7
  08:00,                                  !- Time 8 {hh:mm}
  0,                                      !- Value Until Time 8
  09:00,                                  !- Time 9 {hh:mm}
  0,                                      !- Value Until Time 9
  10:00,                                  !- Time 10 {hh:mm}
  0,                                      !- Value Until Time 10
  11:00,                                  !- Time 11 {hh:mm}
  0,                                      !- Value Until Time 11
  12:00,                                  !- Time 12 {hh:mm}
  0,                                      !- Value Until Time 12
  13:00,                                  !- Time 13 {hh:mm}
  0,                                      !- Value Until Time 13
  14:00,                                  !- Time 14 {hh:mm}
  0,                                      !- Value Until Time 14
  15:00,                                  !- Time 15 {hh:mm}
  0,                                      !- Value Until Time 15
  16:00,                                  !- Time 16 {hh:mm}
  0,                                      !- Value Until Time 16
  17:00,                                  !- Time 17 {hh:mm}
  0,                                      !- Value Until Time 17
  18:00,                                  !- Time 18 {hh:mm}
  0,                                      !- Value Until Time 18
  19:00,                                  !- Time 19 {hh:mm}
  0,                                      !- Value Until Time 19
  20:00,                                  !- Time 20 {hh:mm}
  0,                                      !- Value Until Time 20
  21:00,                                  !- Time 21 {hh:mm}
  0,                                      !- Value Until Time 21
  22:00,                                  !- Time 22 {hh:mm}
  0,                                      !- Value Until Time 22
  23:00,                                  !- Time 23 {hh:mm}
  0,                                      !- Value Until Time 23
  24:00,                                  !- Time 24 {hh:mm}
  0;                                      !- Value Until Time 24

Schedule:Day:Interval,
  satON_OFF_ALWAYS_OFF 1,                 !- Name
  ON_OFF,                                 !- Schedule Type Limits Name
  No,                                     !- Interpolate to Timestep
  01:00,                                  !- Time 1 {hh:mm}
  0,                                      !- Value Until Time 1
  02:00,                                  !- Time 2 {hh:mm}
  0,                                      !- Value Until Time 2
  03:00,                                  !- Time 3 {hh:mm}
  0,                                      !- Value Until Time 3
  04:00,                                  !- Time 4 {hh:mm}
  0,                                      !- Value Until Time 4
  05:00,                                  !- Time 5 {hh:mm}
  0,                                      !- Value Until Time 5
  06:00,                                  !- Time 6 {hh:mm}
  0,                                      !- Value Until Time 6
  07:00,                                  !- Time 7 {hh:mm}
  0,                                      !- Value Until Time 7
  08:00,                                  !- Time 8 {hh:mm}
  0,                                      !- Value Until Time 8
  09:00,                                  !- Time 9 {hh:mm}
  0,                                      !- Value Until Time 9
  10:00,                                  !- Time 10 {hh:mm}
  0,                                      !- Value Until Time 10
  11:00,                                  !- Time 11 {hh:mm}
  0,                                      !- Value Until Time 11
  12:00,                                  !- Time 12 {hh:mm}
  0,                                      !- Value Until Time 12
  13:00,                                  !- Time 13 {hh:mm}
  0,                                      !- Value Until Time 13
  14:00,                                  !- Time 14 {hh:mm}
  0,                                      !- Value Until Time 14
  15:00,                                  !- Time 15 {hh:mm}
  0,                                      !- Value Until Time 15
  16:00,                                  !- Time 16 {hh:mm}
  0,                                      !- Value Until Time 16
  17:00,                                  !- Time 17 {hh:mm}
  0,                                      !- Value Until Time 17
  18:00,                                  !- Time 18 {hh:mm}
  0,                                      !- Value Until Time 18
  19:00,                                  !- Time 19 {hh:mm}
  0,                                      !- Value Until Time 19
  20:00,                                  !- Time 20 {hh:mm}
  0,                                      !- Value Until Time 20
  21:00,                                  !- Time 21 {hh:mm}
  0,                                      !- Value Until Time 21
  22:00,                                  !- Time 22 {hh:mm}
  0,                                      !- Value Until Time 22
  23:00,                                  !- Time 23 {hh:mm}
  0,                                      !- Value Until Time 23
  24:00,                                  !- Time 24 {hh:mm}
  0;                                      !- Value Until Time 24

Schedule:Day:Interval,
  satON_OFF_ALWAYS_OFF 2,                 !- Name
  OnOff,                                  !- Schedule Type Limits Name
  No,                                     !- Interpolate to Timestep
  01:00,                                  !- Time 1 {hh:mm}
  0,                                      !- Value Until Time 1
  02:00,                                  !- Time 2 {hh:mm}
  0,                                      !- Value Until Time 2
  03:00,                                  !- Time 3 {hh:mm}
  0,                                      !- Value Until Time 3
  04:00,                                  !- Time 4 {hh:mm}
  0,                                      !- Value Until Time 4
  05:00,                                  !- Time 5 {hh:mm}
  0,                                      !- Value Until Time 5
  06:00,                                  !- Time 6 {hh:mm}
  0,                                      !- Value Until Time 6
  07:00,                                  !- Time 7 {hh:mm}
  0,                                      !- Value Until Time 7
  08:00,                                  !- Time 8 {hh:mm}
  0,                                      !- Value Until Time 8
  09:00,                                  !- Time 9 {hh:mm}
  0,                                      !- Value Until Time 9
  10:00,                                  !- Time 10 {hh:mm}
  0,                                      !- Value Until Time 10
  11:00,                                  !- Time 11 {hh:mm}
  0,                                      !- Value Until Time 11
  12:00,                                  !- Time 12 {hh:mm}
  0,                                      !- Value Until Time 12
  13:00,                                  !- Time 13 {hh:mm}
  0,                                      !- Value Until Time 13
  14:00,                                  !- Time 14 {hh:mm}
  0,                                      !- Value Until Time 14
  15:00,                                  !- Time 15 {hh:mm}
  0,                                      !- Value Until Time 15
  16:00,                                  !- Time 16 {hh:mm}
  0,                                      !- Value Until Time 16
  17:00,                                  !- Time 17 {hh:mm}
  0,                                      !- Value Until Time 17
  18:00,                                  !- Time 18 {hh:mm}
  0,                                      !- Value Until Time 18
  19:00,                                  !- Time 19 {hh:mm}
  0,                                      !- Value Until Time 19
  20:00,                                  !- Time 20 {hh:mm}
  0,                                      !- Value Until Time 20
  21:00,                                  !- Time 21 {hh:mm}
  0,                                      !- Value Until Time 21
  22:00,                                  !- Time 22 {hh:mm}
  0,                                      !- Value Until Time 22
  23:00,                                  !- Time 23 {hh:mm}
  0,                                      !- Value Until Time 23
  24:00,                                  !- Time 24 {hh:mm}
  0;                                      !- Value Until Time 24

Schedule:Day:Interval,
  Schedule Day 1,                         !- Name
  ,                                       !- Schedule Type Limits Name
  No,                                     !- Interpolate to Timestep
  24:00,                                  !- Time 1 {hh:mm}
  0;                                      !- Value Until Time 1

Schedule:Day:Interval,
  Schedule Day 100,                       !- Name
  ,                                       !- Schedule Type Limits Name
  No,                                     !- Interpolate to Timestep
  24:00,                                  !- Time 1 {hh:mm}
  0;                                      !- Value Until Time 1

Schedule:Day:Interval,
  Schedule Day 101,                       !- Name
  ,                                       !- Schedule Type Limits Name
  No,                                     !- Interpolate to Timestep
  24:00,                                  !- Time 1 {hh:mm}
  0;                                      !- Value Until Time 1

Schedule:Day:Interval,
  Schedule Day 102,                       !- Name
  ,                                       !- Schedule Type Limits Name
  No,                                     !- Interpolate to Timestep
  24:00,                                  !- Time 1 {hh:mm}
  0;                                      !- Value Until Time 1

Schedule:Day:Interval,
  Schedule Day 103,                       !- Name
  ,                                       !- Schedule Type Limits Name
  No,                                     !- Interpolate to Timestep
  24:00,                                  !- Time 1 {hh:mm}
  0;                                      !- Value Until Time 1

Schedule:Day:Interval,
  Schedule Day 104,                       !- Name
  ,                                       !- Schedule Type Limits Name
  No,                                     !- Interpolate to Timestep
  24:00,                                  !- Time 1 {hh:mm}
  0;                                      !- Value Until Time 1

Schedule:Day:Interval,
  Schedule Day 105,                       !- Name
  ,                                       !- Schedule Type Limits Name
  No,                                     !- Interpolate to Timestep
  24:00,                                  !- Time 1 {hh:mm}
  0;                                      !- Value Until Time 1

Schedule:Day:Interval,
  Schedule Day 106,                       !- Name
  ,                                       !- Schedule Type Limits Name
  No,                                     !- Interpolate to Timestep
  24:00,                                  !- Time 1 {hh:mm}
  0;                                      !- Value Until Time 1

Schedule:Day:Interval,
  Schedule Day 107,                       !- Name
  ,                                       !- Schedule Type Limits Name
  No,                                     !- Interpolate to Timestep
  24:00,                                  !- Time 1 {hh:mm}
  0;                                      !- Value Until Time 1

Schedule:Day:Interval,
  Schedule Day 108,                       !- Name
  ,                                       !- Schedule Type Limits Name
  No,                                     !- Interpolate to Timestep
  24:00,                                  !- Time 1 {hh:mm}
  0;                                      !- Value Until Time 1

Schedule:Day:Interval,
  Schedule Day 109,                       !- Name
  ,                                       !- Schedule Type Limits Name
  No,                                     !- Interpolate to Timestep
  24:00,                                  !- Time 1 {hh:mm}
  0;                                      !- Value Until Time 1

Schedule:Day:Interval,
  Schedule Day 110,                       !- Name
  ,                                       !- Schedule Type Limits Name
  No,                                     !- Interpolate to Timestep
  24:00,                                  !- Time 1 {hh:mm}
  0;                                      !- Value Until Time 1

Schedule:Day:Interval,
  Schedule Day 111,                       !- Name
  ,                                       !- Schedule Type Limits Name
  No,                                     !- Interpolate to Timestep
  24:00,                                  !- Time 1 {hh:mm}
  0;                                      !- Value Until Time 1

Schedule:Day:Interval,
  Schedule Day 112,                       !- Name
  ,                                       !- Schedule Type Limits Name
  No,                                     !- Interpolate to Timestep
  24:00,                                  !- Time 1 {hh:mm}
  0;                                      !- Value Until Time 1

Schedule:Day:Interval,
  Schedule Day 113,                       !- Name
  ,                                       !- Schedule Type Limits Name
  No,                                     !- Interpolate to Timestep
  24:00,                                  !- Time 1 {hh:mm}
  0;                                      !- Value Until Time 1

Schedule:Day:Interval,
  Schedule Day 114,                       !- Name
  ,                                       !- Schedule Type Limits Name
  No,                                     !- Interpolate to Timestep
  24:00,                                  !- Time 1 {hh:mm}
  0;                                      !- Value Until Time 1

Schedule:Day:Interval,
  Schedule Day 115,                       !- Name
  ,                                       !- Schedule Type Limits Name
  No,                                     !- Interpolate to Timestep
  24:00,                                  !- Time 1 {hh:mm}
  0;                                      !- Value Until Time 1

Schedule:Day:Interval,
  Schedule Day 116,                       !- Name
  ,                                       !- Schedule Type Limits Name
  No,                                     !- Interpolate to Timestep
  24:00,                                  !- Time 1 {hh:mm}
  0;                                      !- Value Until Time 1

Schedule:Day:Interval,
  Schedule Day 117,                       !- Name
  ,                                       !- Schedule Type Limits Name
  No,                                     !- Interpolate to Timestep
  24:00,                                  !- Time 1 {hh:mm}
  0;                                      !- Value Until Time 1

Schedule:Day:Interval,
  Schedule Day 118,                       !- Name
  ,                                       !- Schedule Type Limits Name
  No,                                     !- Interpolate to Timestep
  24:00,                                  !- Time 1 {hh:mm}
  0;                                      !- Value Until Time 1

Schedule:Day:Interval,
  Schedule Day 119,                       !- Name
  ,                                       !- Schedule Type Limits Name
  No,                                     !- Interpolate to Timestep
  24:00,                                  !- Time 1 {hh:mm}
  0;                                      !- Value Until Time 1

Schedule:Day:Interval,
  Schedule Day 120,                       !- Name
  ,                                       !- Schedule Type Limits Name
  No,                                     !- Interpolate to Timestep
  24:00,                                  !- Time 1 {hh:mm}
  0;                                      !- Value Until Time 1

Schedule:Day:Interval,
  Schedule Day 121,                       !- Name
  ,                                       !- Schedule Type Limits Name
  No,                                     !- Interpolate to Timestep
  24:00,                                  !- Time 1 {hh:mm}
  0;                                      !- Value Until Time 1

Schedule:Day:Interval,
  Schedule Day 122,                       !- Name
  ,                                       !- Schedule Type Limits Name
  No,                                     !- Interpolate to Timestep
  24:00,                                  !- Time 1 {hh:mm}
  0;                                      !- Value Until Time 1

Schedule:Day:Interval,
  Schedule Day 123,                       !- Name
  ,                                       !- Schedule Type Limits Name
  No,                                     !- Interpolate to Timestep
  24:00,                                  !- Time 1 {hh:mm}
  0;                                      !- Value Until Time 1

Schedule:Day:Interval,
  Schedule Day 124,                       !- Name
  ,                                       !- Schedule Type Limits Name
  No,                                     !- Interpolate to Timestep
  24:00,                                  !- Time 1 {hh:mm}
  0;                                      !- Value Until Time 1

Schedule:Day:Interval,
  Schedule Day 125,                       !- Name
  ,                                       !- Schedule Type Limits Name
  No,                                     !- Interpolate to Timestep
  24:00,                                  !- Time 1 {hh:mm}
  0;                                      !- Value Until Time 1

Schedule:Day:Interval,
  Schedule Day 126,                       !- Name
  ,                                       !- Schedule Type Limits Name
  No,                                     !- Interpolate to Timestep
  24:00,                                  !- Time 1 {hh:mm}
  0;                                      !- Value Until Time 1

Schedule:Day:Interval,
  Schedule Day 127,                       !- Name
  ,                                       !- Schedule Type Limits Name
  No,                                     !- Interpolate to Timestep
  24:00,                                  !- Time 1 {hh:mm}
  0;                                      !- Value Until Time 1

Schedule:Day:Interval,
  Schedule Day 2,                         !- Name
  ,                                       !- Schedule Type Limits Name
  No,                                     !- Interpolate to Timestep
  24:00,                                  !- Time 1 {hh:mm}
  0;                                      !- Value Until Time 1

Schedule:Day:Interval,
  Schedule Day 3,                         !- Name
  ,                                       !- Schedule Type Limits Name
  No,                                     !- Interpolate to Timestep
  24:00,                                  !- Time 1 {hh:mm}
  0;                                      !- Value Until Time 1

Schedule:Day:Interval,
  Schedule Day 4,                         !- Name
  ,                                       !- Schedule Type Limits Name
  No,                                     !- Interpolate to Timestep
  24:00,                                  !- Time 1 {hh:mm}
  0;                                      !- Value Until Time 1

Schedule:Day:Interval,
  Schedule Day 5,                         !- Name
  OnOff,                                  !- Schedule Type Limits Name
  No,                                     !- Interpolate to Timestep
  01:00,                                  !- Time 1 {hh:mm}
  0,                                      !- Value Until Time 1
  02:00,                                  !- Time 2 {hh:mm}
  0,                                      !- Value Until Time 2
  03:00,                                  !- Time 3 {hh:mm}
  0,                                      !- Value Until Time 3
  04:00,                                  !- Time 4 {hh:mm}
  0,                                      !- Value Until Time 4
  05:00,                                  !- Time 5 {hh:mm}
  0,                                      !- Value Until Time 5
  06:00,                                  !- Time 6 {hh:mm}
  0,                                      !- Value Until Time 6
  07:00,                                  !- Time 7 {hh:mm}
  0,                                      !- Value Until Time 7
  08:00,                                  !- Time 8 {hh:mm}
  0,                                      !- Value Until Time 8
  09:00,                                  !- Time 9 {hh:mm}
  0,                                      !- Value Until Time 9
  10:00,                                  !- Time 10 {hh:mm}
  0,                                      !- Value Until Time 10
  11:00,                                  !- Time 11 {hh:mm}
  0,                                      !- Value Until Time 11
  12:00,                                  !- Time 12 {hh:mm}
  0,                                      !- Value Until Time 12
  13:00,                                  !- Time 13 {hh:mm}
  0,                                      !- Value Until Time 13
  14:00,                                  !- Time 14 {hh:mm}
  0,                                      !- Value Until Time 14
  15:00,                                  !- Time 15 {hh:mm}
  0,                                      !- Value Until Time 15
  16:00,                                  !- Time 16 {hh:mm}
  0,                                      !- Value Until Time 16
  17:00,                                  !- Time 17 {hh:mm}
  0,                                      !- Value Until Time 17
  18:00,                                  !- Time 18 {hh:mm}
  0,                                      !- Value Until Time 18
  19:00,                                  !- Time 19 {hh:mm}
  0,                                      !- Value Until Time 19
  20:00,                                  !- Time 20 {hh:mm}
  0,                                      !- Value Until Time 20
  21:00,                                  !- Time 21 {hh:mm}
  0,                                      !- Value Until Time 21
  22:00,                                  !- Time 22 {hh:mm}
  0,                                      !- Value Until Time 22
  23:00,                                  !- Time 23 {hh:mm}
  0,                                      !- Value Until Time 23
  24:00,                                  !- Time 24 {hh:mm}
  0;                                      !- Value Until Time 24

Schedule:Day:Interval,
  Schedule Day 6,                         !- Name
  Temperature,                            !- Schedule Type Limits Name
  No,                                     !- Interpolate to Timestep
  24:00,                                  !- Time 1 {hh:mm}
  22;                                     !- Value Until Time 1

Schedule:Day:Interval,
  Schedule Day 7,                         !- Name
  Temperature,                            !- Schedule Type Limits Name
  No,                                     !- Interpolate to Timestep
  24:00,                                  !- Time 1 {hh:mm}
  60;                                     !- Value Until Time 1

Schedule:Day:Interval,
  Schedule Day 78,                        !- Name
  ,                                       !- Schedule Type Limits Name
  No,                                     !- Interpolate to Timestep
  24:00,                                  !- Time 1 {hh:mm}
  0;                                      !- Value Until Time 1

Schedule:Day:Interval,
  Schedule Day 79,                        !- Name
  ,                                       !- Schedule Type Limits Name
  No,                                     !- Interpolate to Timestep
  24:00,                                  !- Time 1 {hh:mm}
  0;                                      !- Value Until Time 1

Schedule:Day:Interval,
  Schedule Day 8,                         !- Name
  Temperature,                            !- Schedule Type Limits Name
  No,                                     !- Interpolate to Timestep
  24:00,                                  !- Time 1 {hh:mm}
  20;                                     !- Value Until Time 1

Schedule:Day:Interval,
  Schedule Day 80,                        !- Name
  ,                                       !- Schedule Type Limits Name
  No,                                     !- Interpolate to Timestep
  24:00,                                  !- Time 1 {hh:mm}
  0;                                      !- Value Until Time 1

Schedule:Day:Interval,
  Schedule Day 81,                        !- Name
  ,                                       !- Schedule Type Limits Name
  No,                                     !- Interpolate to Timestep
  24:00,                                  !- Time 1 {hh:mm}
  0;                                      !- Value Until Time 1

Schedule:Day:Interval,
  Schedule Day 82,                        !- Name
  ,                                       !- Schedule Type Limits Name
  No,                                     !- Interpolate to Timestep
  24:00,                                  !- Time 1 {hh:mm}
  0;                                      !- Value Until Time 1

Schedule:Day:Interval,
  Schedule Day 83,                        !- Name
  ,                                       !- Schedule Type Limits Name
  No,                                     !- Interpolate to Timestep
  24:00,                                  !- Time 1 {hh:mm}
  0;                                      !- Value Until Time 1

Schedule:Day:Interval,
  Schedule Day 84,                        !- Name
  ,                                       !- Schedule Type Limits Name
  No,                                     !- Interpolate to Timestep
  24:00,                                  !- Time 1 {hh:mm}
  0;                                      !- Value Until Time 1

Schedule:Day:Interval,
  Schedule Day 85,                        !- Name
  ,                                       !- Schedule Type Limits Name
  No,                                     !- Interpolate to Timestep
  24:00,                                  !- Time 1 {hh:mm}
  0;                                      !- Value Until Time 1

Schedule:Day:Interval,
  Schedule Day 86,                        !- Name
  ,                                       !- Schedule Type Limits Name
  No,                                     !- Interpolate to Timestep
  24:00,                                  !- Time 1 {hh:mm}
  0;                                      !- Value Until Time 1

Schedule:Day:Interval,
  Schedule Day 87,                        !- Name
  ,                                       !- Schedule Type Limits Name
  No,                                     !- Interpolate to Timestep
  24:00,                                  !- Time 1 {hh:mm}
  0;                                      !- Value Until Time 1

Schedule:Day:Interval,
  Schedule Day 88,                        !- Name
  ,                                       !- Schedule Type Limits Name
  No,                                     !- Interpolate to Timestep
  24:00,                                  !- Time 1 {hh:mm}
  0;                                      !- Value Until Time 1

Schedule:Day:Interval,
  Schedule Day 89,                        !- Name
  ,                                       !- Schedule Type Limits Name
  No,                                     !- Interpolate to Timestep
  24:00,                                  !- Time 1 {hh:mm}
  0;                                      !- Value Until Time 1

Schedule:Day:Interval,
  Schedule Day 90,                        !- Name
  ,                                       !- Schedule Type Limits Name
  No,                                     !- Interpolate to Timestep
  24:00,                                  !- Time 1 {hh:mm}
  0;                                      !- Value Until Time 1

Schedule:Day:Interval,
  Schedule Day 91,                        !- Name
  ,                                       !- Schedule Type Limits Name
  No,                                     !- Interpolate to Timestep
  24:00,                                  !- Time 1 {hh:mm}
  0;                                      !- Value Until Time 1

Schedule:Day:Interval,
  Schedule Day 92,                        !- Name
  ,                                       !- Schedule Type Limits Name
  No,                                     !- Interpolate to Timestep
  24:00,                                  !- Time 1 {hh:mm}
  0;                                      !- Value Until Time 1

Schedule:Day:Interval,
  Schedule Day 93,                        !- Name
  ,                                       !- Schedule Type Limits Name
  No,                                     !- Interpolate to Timestep
  24:00,                                  !- Time 1 {hh:mm}
  0;                                      !- Value Until Time 1

Schedule:Day:Interval,
  Schedule Day 94,                        !- Name
  ,                                       !- Schedule Type Limits Name
  No,                                     !- Interpolate to Timestep
  24:00,                                  !- Time 1 {hh:mm}
  0;                                      !- Value Until Time 1

Schedule:Day:Interval,
  Schedule Day 95,                        !- Name
  ,                                       !- Schedule Type Limits Name
  No,                                     !- Interpolate to Timestep
  24:00,                                  !- Time 1 {hh:mm}
  0;                                      !- Value Until Time 1

Schedule:Day:Interval,
  Schedule Day 96,                        !- Name
  ,                                       !- Schedule Type Limits Name
  No,                                     !- Interpolate to Timestep
  24:00,                                  !- Time 1 {hh:mm}
  0;                                      !- Value Until Time 1

Schedule:Day:Interval,
  Schedule Day 97,                        !- Name
  ,                                       !- Schedule Type Limits Name
  No,                                     !- Interpolate to Timestep
  24:00,                                  !- Time 1 {hh:mm}
  0;                                      !- Value Until Time 1

Schedule:Day:Interval,
  Schedule Day 98,                        !- Name
  ,                                       !- Schedule Type Limits Name
  No,                                     !- Interpolate to Timestep
  24:00,                                  !- Time 1 {hh:mm}
  0;                                      !- Value Until Time 1

Schedule:Day:Interval,
  Schedule Day 99,                        !- Name
  ,                                       !- Schedule Type Limits Name
  No,                                     !- Interpolate to Timestep
  24:00,                                  !- Time 1 {hh:mm}
  0;                                      !- Value Until Time 1

Schedule:Day:Interval,
  Service Water Loop Temp - 140F Default, !- Name
  Temperature,                            !- Schedule Type Limits Name
  No,                                     !- Interpolate to Timestep
  24:00,                                  !- Time 1 {hh:mm}
  60;                                     !- Value Until Time 1

Schedule:Day:Interval,
  sunON_OFF_ALWAYS_OFF,                   !- Name
  ON_OFF,                                 !- Schedule Type Limits Name
  No,                                     !- Interpolate to Timestep
  01:00,                                  !- Time 1 {hh:mm}
  0,                                      !- Value Until Time 1
  02:00,                                  !- Time 2 {hh:mm}
  0,                                      !- Value Until Time 2
  03:00,                                  !- Time 3 {hh:mm}
  0,                                      !- Value Until Time 3
  04:00,                                  !- Time 4 {hh:mm}
  0,                                      !- Value Until Time 4
  05:00,                                  !- Time 5 {hh:mm}
  0,                                      !- Value Until Time 5
  06:00,                                  !- Time 6 {hh:mm}
  0,                                      !- Value Until Time 6
  07:00,                                  !- Time 7 {hh:mm}
  0,                                      !- Value Until Time 7
  08:00,                                  !- Time 8 {hh:mm}
  0,                                      !- Value Until Time 8
  09:00,                                  !- Time 9 {hh:mm}
  0,                                      !- Value Until Time 9
  10:00,                                  !- Time 10 {hh:mm}
  0,                                      !- Value Until Time 10
  11:00,                                  !- Time 11 {hh:mm}
  0,                                      !- Value Until Time 11
  12:00,                                  !- Time 12 {hh:mm}
  0,                                      !- Value Until Time 12
  13:00,                                  !- Time 13 {hh:mm}
  0,                                      !- Value Until Time 13
  14:00,                                  !- Time 14 {hh:mm}
  0,                                      !- Value Until Time 14
  15:00,                                  !- Time 15 {hh:mm}
  0,                                      !- Value Until Time 15
  16:00,                                  !- Time 16 {hh:mm}
  0,                                      !- Value Until Time 16
  17:00,                                  !- Time 17 {hh:mm}
  0,                                      !- Value Until Time 17
  18:00,                                  !- Time 18 {hh:mm}
  0,                                      !- Value Until Time 18
  19:00,                                  !- Time 19 {hh:mm}
  0,                                      !- Value Until Time 19
  20:00,                                  !- Time 20 {hh:mm}
  0,                                      !- Value Until Time 20
  21:00,                                  !- Time 21 {hh:mm}
  0,                                      !- Value Until Time 21
  22:00,                                  !- Time 22 {hh:mm}
  0,                                      !- Value Until Time 22
  23:00,                                  !- Time 23 {hh:mm}
  0,                                      !- Value Until Time 23
  24:00,                                  !- Time 24 {hh:mm}
  0;                                      !- Value Until Time 24

Schedule:Day:Interval,
  sunON_OFF_ALWAYS_OFF 1,                 !- Name
  ON_OFF,                                 !- Schedule Type Limits Name
  No,                                     !- Interpolate to Timestep
  01:00,                                  !- Time 1 {hh:mm}
  0,                                      !- Value Until Time 1
  02:00,                                  !- Time 2 {hh:mm}
  0,                                      !- Value Until Time 2
  03:00,                                  !- Time 3 {hh:mm}
  0,                                      !- Value Until Time 3
  04:00,                                  !- Time 4 {hh:mm}
  0,                                      !- Value Until Time 4
  05:00,                                  !- Time 5 {hh:mm}
  0,                                      !- Value Until Time 5
  06:00,                                  !- Time 6 {hh:mm}
  0,                                      !- Value Until Time 6
  07:00,                                  !- Time 7 {hh:mm}
  0,                                      !- Value Until Time 7
  08:00,                                  !- Time 8 {hh:mm}
  0,                                      !- Value Until Time 8
  09:00,                                  !- Time 9 {hh:mm}
  0,                                      !- Value Until Time 9
  10:00,                                  !- Time 10 {hh:mm}
  0,                                      !- Value Until Time 10
  11:00,                                  !- Time 11 {hh:mm}
  0,                                      !- Value Until Time 11
  12:00,                                  !- Time 12 {hh:mm}
  0,                                      !- Value Until Time 12
  13:00,                                  !- Time 13 {hh:mm}
  0,                                      !- Value Until Time 13
  14:00,                                  !- Time 14 {hh:mm}
  0,                                      !- Value Until Time 14
  15:00,                                  !- Time 15 {hh:mm}
  0,                                      !- Value Until Time 15
  16:00,                                  !- Time 16 {hh:mm}
  0,                                      !- Value Until Time 16
  17:00,                                  !- Time 17 {hh:mm}
  0,                                      !- Value Until Time 17
  18:00,                                  !- Time 18 {hh:mm}
  0,                                      !- Value Until Time 18
  19:00,                                  !- Time 19 {hh:mm}
  0,                                      !- Value Until Time 19
  20:00,                                  !- Time 20 {hh:mm}
  0,                                      !- Value Until Time 20
  21:00,                                  !- Time 21 {hh:mm}
  0,                                      !- Value Until Time 21
  22:00,                                  !- Time 22 {hh:mm}
  0,                                      !- Value Until Time 22
  23:00,                                  !- Time 23 {hh:mm}
  0,                                      !- Value Until Time 23
  24:00,                                  !- Time 24 {hh:mm}
  0;                                      !- Value Until Time 24

Schedule:Day:Interval,
  sunON_OFF_ALWAYS_OFF 2,                 !- Name
  OnOff,                                  !- Schedule Type Limits Name
  No,                                     !- Interpolate to Timestep
  01:00,                                  !- Time 1 {hh:mm}
  0,                                      !- Value Until Time 1
  02:00,                                  !- Time 2 {hh:mm}
  0,                                      !- Value Until Time 2
  03:00,                                  !- Time 3 {hh:mm}
  0,                                      !- Value Until Time 3
  04:00,                                  !- Time 4 {hh:mm}
  0,                                      !- Value Until Time 4
  05:00,                                  !- Time 5 {hh:mm}
  0,                                      !- Value Until Time 5
  06:00,                                  !- Time 6 {hh:mm}
  0,                                      !- Value Until Time 6
  07:00,                                  !- Time 7 {hh:mm}
  0,                                      !- Value Until Time 7
  08:00,                                  !- Time 8 {hh:mm}
  0,                                      !- Value Until Time 8
  09:00,                                  !- Time 9 {hh:mm}
  0,                                      !- Value Until Time 9
  10:00,                                  !- Time 10 {hh:mm}
  0,                                      !- Value Until Time 10
  11:00,                                  !- Time 11 {hh:mm}
  0,                                      !- Value Until Time 11
  12:00,                                  !- Time 12 {hh:mm}
  0,                                      !- Value Until Time 12
  13:00,                                  !- Time 13 {hh:mm}
  0,                                      !- Value Until Time 13
  14:00,                                  !- Time 14 {hh:mm}
  0,                                      !- Value Until Time 14
  15:00,                                  !- Time 15 {hh:mm}
  0,                                      !- Value Until Time 15
  16:00,                                  !- Time 16 {hh:mm}
  0,                                      !- Value Until Time 16
  17:00,                                  !- Time 17 {hh:mm}
  0,                                      !- Value Until Time 17
  18:00,                                  !- Time 18 {hh:mm}
  0,                                      !- Value Until Time 18
  19:00,                                  !- Time 19 {hh:mm}
  0,                                      !- Value Until Time 19
  20:00,                                  !- Time 20 {hh:mm}
  0,                                      !- Value Until Time 20
  21:00,                                  !- Time 21 {hh:mm}
  0,                                      !- Value Until Time 21
  22:00,                                  !- Time 22 {hh:mm}
  0,                                      !- Value Until Time 22
  23:00,                                  !- Time 23 {hh:mm}
  0,                                      !- Value Until Time 23
  24:00,                                  !- Time 24 {hh:mm}
  0;                                      !- Value Until Time 24

Schedule:Day:Interval,
  Water Heater Ambient Temp Schedule 71.6F Default, !- Name
  Temperature,                            !- Schedule Type Limits Name
  No,                                     !- Interpolate to Timestep
  24:00,                                  !- Time 1 {hh:mm}
  22.0000000000001;                       !- Value Until Time 1

Schedule:Day:Interval,
  wkdON_OFF_ALWAYS_OFF,                   !- Name
  ON_OFF,                                 !- Schedule Type Limits Name
  No,                                     !- Interpolate to Timestep
  01:00,                                  !- Time 1 {hh:mm}
  0,                                      !- Value Until Time 1
  02:00,                                  !- Time 2 {hh:mm}
  0,                                      !- Value Until Time 2
  03:00,                                  !- Time 3 {hh:mm}
  0,                                      !- Value Until Time 3
  04:00,                                  !- Time 4 {hh:mm}
  0,                                      !- Value Until Time 4
  05:00,                                  !- Time 5 {hh:mm}
  0,                                      !- Value Until Time 5
  06:00,                                  !- Time 6 {hh:mm}
  0,                                      !- Value Until Time 6
  07:00,                                  !- Time 7 {hh:mm}
  0,                                      !- Value Until Time 7
  08:00,                                  !- Time 8 {hh:mm}
  0,                                      !- Value Until Time 8
  09:00,                                  !- Time 9 {hh:mm}
  0,                                      !- Value Until Time 9
  10:00,                                  !- Time 10 {hh:mm}
  0,                                      !- Value Until Time 10
  11:00,                                  !- Time 11 {hh:mm}
  0,                                      !- Value Until Time 11
  12:00,                                  !- Time 12 {hh:mm}
  0,                                      !- Value Until Time 12
  13:00,                                  !- Time 13 {hh:mm}
  0,                                      !- Value Until Time 13
  14:00,                                  !- Time 14 {hh:mm}
  0,                                      !- Value Until Time 14
  15:00,                                  !- Time 15 {hh:mm}
  0,                                      !- Value Until Time 15
  16:00,                                  !- Time 16 {hh:mm}
  0,                                      !- Value Until Time 16
  17:00,                                  !- Time 17 {hh:mm}
  0,                                      !- Value Until Time 17
  18:00,                                  !- Time 18 {hh:mm}
  0,                                      !- Value Until Time 18
  19:00,                                  !- Time 19 {hh:mm}
  0,                                      !- Value Until Time 19
  20:00,                                  !- Time 20 {hh:mm}
  0,                                      !- Value Until Time 20
  21:00,                                  !- Time 21 {hh:mm}
  0,                                      !- Value Until Time 21
  22:00,                                  !- Time 22 {hh:mm}
  0,                                      !- Value Until Time 22
  23:00,                                  !- Time 23 {hh:mm}
  0,                                      !- Value Until Time 23
  24:00,                                  !- Time 24 {hh:mm}
  0;                                      !- Value Until Time 24

Schedule:Day:Interval,
  wkdON_OFF_ALWAYS_OFF 1,                 !- Name
  ON_OFF,                                 !- Schedule Type Limits Name
  No,                                     !- Interpolate to Timestep
  01:00,                                  !- Time 1 {hh:mm}
  0,                                      !- Value Until Time 1
  02:00,                                  !- Time 2 {hh:mm}
  0,                                      !- Value Until Time 2
  03:00,                                  !- Time 3 {hh:mm}
  0,                                      !- Value Until Time 3
  04:00,                                  !- Time 4 {hh:mm}
  0,                                      !- Value Until Time 4
  05:00,                                  !- Time 5 {hh:mm}
  0,                                      !- Value Until Time 5
  06:00,                                  !- Time 6 {hh:mm}
  0,                                      !- Value Until Time 6
  07:00,                                  !- Time 7 {hh:mm}
  0,                                      !- Value Until Time 7
  08:00,                                  !- Time 8 {hh:mm}
  0,                                      !- Value Until Time 8
  09:00,                                  !- Time 9 {hh:mm}
  0,                                      !- Value Until Time 9
  10:00,                                  !- Time 10 {hh:mm}
  0,                                      !- Value Until Time 10
  11:00,                                  !- Time 11 {hh:mm}
  0,                                      !- Value Until Time 11
  12:00,                                  !- Time 12 {hh:mm}
  0,                                      !- Value Until Time 12
  13:00,                                  !- Time 13 {hh:mm}
  0,                                      !- Value Until Time 13
  14:00,                                  !- Time 14 {hh:mm}
  0,                                      !- Value Until Time 14
  15:00,                                  !- Time 15 {hh:mm}
  0,                                      !- Value Until Time 15
  16:00,                                  !- Time 16 {hh:mm}
  0,                                      !- Value Until Time 16
  17:00,                                  !- Time 17 {hh:mm}
  0,                                      !- Value Until Time 17
  18:00,                                  !- Time 18 {hh:mm}
  0,                                      !- Value Until Time 18
  19:00,                                  !- Time 19 {hh:mm}
  0,                                      !- Value Until Time 19
  20:00,                                  !- Time 20 {hh:mm}
  0,                                      !- Value Until Time 20
  21:00,                                  !- Time 21 {hh:mm}
  0,                                      !- Value Until Time 21
  22:00,                                  !- Time 22 {hh:mm}
  0,                                      !- Value Until Time 22
  23:00,                                  !- Time 23 {hh:mm}
  0,                                      !- Value Until Time 23
  24:00,                                  !- Time 24 {hh:mm}
  0;                                      !- Value Until Time 24

Schedule:Day:Interval,
  wkdON_OFF_ALWAYS_OFF 2,                 !- Name
  OnOff,                                  !- Schedule Type Limits Name
  No,                                     !- Interpolate to Timestep
  01:00,                                  !- Time 1 {hh:mm}
  0,                                      !- Value Until Time 1
  02:00,                                  !- Time 2 {hh:mm}
  0,                                      !- Value Until Time 2
  03:00,                                  !- Time 3 {hh:mm}
  0,                                      !- Value Until Time 3
  04:00,                                  !- Time 4 {hh:mm}
  0,                                      !- Value Until Time 4
  05:00,                                  !- Time 5 {hh:mm}
  0,                                      !- Value Until Time 5
  06:00,                                  !- Time 6 {hh:mm}
  0,                                      !- Value Until Time 6
  07:00,                                  !- Time 7 {hh:mm}
  0,                                      !- Value Until Time 7
  08:00,                                  !- Time 8 {hh:mm}
  0,                                      !- Value Until Time 8
  09:00,                                  !- Time 9 {hh:mm}
  0,                                      !- Value Until Time 9
  10:00,                                  !- Time 10 {hh:mm}
  0,                                      !- Value Until Time 10
  11:00,                                  !- Time 11 {hh:mm}
  0,                                      !- Value Until Time 11
  12:00,                                  !- Time 12 {hh:mm}
  0,                                      !- Value Until Time 12
  13:00,                                  !- Time 13 {hh:mm}
  0,                                      !- Value Until Time 13
  14:00,                                  !- Time 14 {hh:mm}
  0,                                      !- Value Until Time 14
  15:00,                                  !- Time 15 {hh:mm}
  0,                                      !- Value Until Time 15
  16:00,                                  !- Time 16 {hh:mm}
  0,                                      !- Value Until Time 16
  17:00,                                  !- Time 17 {hh:mm}
  0,                                      !- Value Until Time 17
  18:00,                                  !- Time 18 {hh:mm}
  0,                                      !- Value Until Time 18
  19:00,                                  !- Time 19 {hh:mm}
  0,                                      !- Value Until Time 19
  20:00,                                  !- Time 20 {hh:mm}
  0,                                      !- Value Until Time 20
  21:00,                                  !- Time 21 {hh:mm}
  0,                                      !- Value Until Time 21
  22:00,                                  !- Time 22 {hh:mm}
  0,                                      !- Value Until Time 22
  23:00,                                  !- Time 23 {hh:mm}
  0,                                      !- Value Until Time 23
  24:00,                                  !- Time 24 {hh:mm}
  0;                                      !- Value Until Time 24

Schedule:Week:Daily,
  Economizer Max OA Fraction 100 pct Week Rule - Jan1-Dec31, !- Name
  Economizer Max OA Fraction 100 pct Default, !- Sunday Schedule:Day Name
  Economizer Max OA Fraction 100 pct Default, !- Monday Schedule:Day Name
  Economizer Max OA Fraction 100 pct Default, !- Tuesday Schedule:Day Name
  Economizer Max OA Fraction 100 pct Default, !- Wednesday Schedule:Day Name
  Economizer Max OA Fraction 100 pct Default, !- Thursday Schedule:Day Name
  Economizer Max OA Fraction 100 pct Default, !- Friday Schedule:Day Name
  Economizer Max OA Fraction 100 pct Default, !- Saturday Schedule:Day Name
  Economizer Max OA Fraction 100 pct Default, !- Holiday Schedule:Day Name
  Economizer Max OA Fraction 100 pct Default, !- SummerDesignDay Schedule:Day Name
  Economizer Max OA Fraction 100 pct Default, !- WinterDesignDay Schedule:Day Name
  Economizer Max OA Fraction 100 pct Default, !- CustomDay1 Schedule:Day Name
  Economizer Max OA Fraction 100 pct Default; !- CustomDay2 Schedule:Day Name

Schedule:Year,
  Economizer Max OA Fraction 100 pct,     !- Name
  ,                                       !- Schedule Type Limits Name
  Economizer Max OA Fraction 100 pct Week Rule - Jan1-Dec31, !- Schedule:Week Name 1
  1,                                      !- Start Month 1
  1,                                      !- Start Day 1
  12,                                     !- End Month 1
  31;                                     !- End Day 1

Schedule:Week:Daily,
  Fraction Latent - 0.05 Week Rule - Jan1-Dec31, !- Name
  Fraction Latent - 0.05 Default,         !- Sunday Schedule:Day Name
  Fraction Latent - 0.05 Default,         !- Monday Schedule:Day Name
  Fraction Latent - 0.05 Default,         !- Tuesday Schedule:Day Name
  Fraction Latent - 0.05 Default,         !- Wednesday Schedule:Day Name
  Fraction Latent - 0.05 Default,         !- Thursday Schedule:Day Name
  Fraction Latent - 0.05 Default,         !- Friday Schedule:Day Name
  Fraction Latent - 0.05 Default,         !- Saturday Schedule:Day Name
  Fraction Latent - 0.05 Default,         !- Holiday Schedule:Day Name
  Fraction Latent - 0.05 Default,         !- SummerDesignDay Schedule:Day Name
  Fraction Latent - 0.05 Default,         !- WinterDesignDay Schedule:Day Name
  Fraction Latent - 0.05 Default,         !- CustomDay1 Schedule:Day Name
  Fraction Latent - 0.05 Default;         !- CustomDay2 Schedule:Day Name

Schedule:Year,
  Fraction Latent - 0.05,                 !- Name
  Fractional,                             !- Schedule Type Limits Name
  Fraction Latent - 0.05 Week Rule - Jan1-Dec31, !- Schedule:Week Name 1
  1,                                      !- Start Month 1
  1,                                      !- Start Day 1
  12,                                     !- End Month 1
  31;                                     !- End Day 1

Schedule:Week:Daily,
  Fraction Sensible - 0.2 Week Rule - Jan1-Dec31, !- Name
  Fraction Sensible - 0.2 Default,        !- Sunday Schedule:Day Name
  Fraction Sensible - 0.2 Default,        !- Monday Schedule:Day Name
  Fraction Sensible - 0.2 Default,        !- Tuesday Schedule:Day Name
  Fraction Sensible - 0.2 Default,        !- Wednesday Schedule:Day Name
  Fraction Sensible - 0.2 Default,        !- Thursday Schedule:Day Name
  Fraction Sensible - 0.2 Default,        !- Friday Schedule:Day Name
  Fraction Sensible - 0.2 Default,        !- Saturday Schedule:Day Name
  Fraction Sensible - 0.2 Default,        !- Holiday Schedule:Day Name
  Fraction Sensible - 0.2 Default,        !- SummerDesignDay Schedule:Day Name
  Fraction Sensible - 0.2 Default,        !- WinterDesignDay Schedule:Day Name
  Fraction Sensible - 0.2 Default,        !- CustomDay1 Schedule:Day Name
  Fraction Sensible - 0.2 Default;        !- CustomDay2 Schedule:Day Name

Schedule:Year,
  Fraction Sensible - 0.2,                !- Name
  Fractional,                             !- Schedule Type Limits Name
  Fraction Sensible - 0.2 Week Rule - Jan1-Dec31, !- Schedule:Week Name 1
  1,                                      !- Start Month 1
  1,                                      !- Start Day 1
  12,                                     !- End Month 1
  31;                                     !- End Day 1

Schedule:Week:Daily,
  Makeup-Air Unit Supply Air Temp Week Rule - Jan1-Dec31, !- Name
  Makeup Air Unit Supply Air Temp Default, !- Sunday Schedule:Day Name
  Makeup Air Unit Supply Air Temp Default, !- Monday Schedule:Day Name
  Makeup Air Unit Supply Air Temp Default, !- Tuesday Schedule:Day Name
  Makeup Air Unit Supply Air Temp Default, !- Wednesday Schedule:Day Name
  Makeup Air Unit Supply Air Temp Default, !- Thursday Schedule:Day Name
  Makeup Air Unit Supply Air Temp Default, !- Friday Schedule:Day Name
  Makeup Air Unit Supply Air Temp Default, !- Saturday Schedule:Day Name
  Makeup Air Unit Supply Air Temp Default, !- Holiday Schedule:Day Name
  Makeup Air Unit Supply Air Temp Default, !- SummerDesignDay Schedule:Day Name
  Makeup Air Unit Supply Air Temp Default, !- WinterDesignDay Schedule:Day Name
  Makeup Air Unit Supply Air Temp Default, !- CustomDay1 Schedule:Day Name
  Makeup Air Unit Supply Air Temp Default; !- CustomDay2 Schedule:Day Name

Schedule:Year,
  Makeup-Air Unit Supply Air Temp,        !- Name
  Temperature,                            !- Schedule Type Limits Name
  Makeup-Air Unit Supply Air Temp Week Rule - Jan1-Dec31, !- Schedule:Week Name 1
  1,                                      !- Start Month 1
  1,                                      !- Start Day 1
  12,                                     !- End Month 1
  31;                                     !- End Day 1

Schedule:Week:Daily,
  Mixed Water At Faucet Temp - 140F Week Rule - Jan1-Dec31, !- Name
  Mixed Water At Faucet Temp - 140F Default, !- Sunday Schedule:Day Name
  Mixed Water At Faucet Temp - 140F Default, !- Monday Schedule:Day Name
  Mixed Water At Faucet Temp - 140F Default, !- Tuesday Schedule:Day Name
  Mixed Water At Faucet Temp - 140F Default, !- Wednesday Schedule:Day Name
  Mixed Water At Faucet Temp - 140F Default, !- Thursday Schedule:Day Name
  Mixed Water At Faucet Temp - 140F Default, !- Friday Schedule:Day Name
  Mixed Water At Faucet Temp - 140F Default, !- Saturday Schedule:Day Name
  Mixed Water At Faucet Temp - 140F Default, !- Holiday Schedule:Day Name
  Mixed Water At Faucet Temp - 140F Default, !- SummerDesignDay Schedule:Day Name
  Mixed Water At Faucet Temp - 140F Default, !- WinterDesignDay Schedule:Day Name
  Mixed Water At Faucet Temp - 140F Default, !- CustomDay1 Schedule:Day Name
  Mixed Water At Faucet Temp - 140F Default; !- CustomDay2 Schedule:Day Name

Schedule:Year,
  Mixed Water At Faucet Temp - 140F,      !- Name
  Temperature,                            !- Schedule Type Limits Name
  Mixed Water At Faucet Temp - 140F Week Rule - Jan1-Dec31, !- Schedule:Week Name 1
  1,                                      !- Start Month 1
  1,                                      !- Start Day 1
  12,                                     !- End Month 1
  31;                                     !- End Day 1

Schedule:Week:Daily,
  NECB-G-Service Water Heating Week Rule - Jan1-Dec31, !- Name
  NECB-G-Service Water Heating Sun|Hol Day, !- Sunday Schedule:Day Name
  NECB-G-Service Water Heating Default|Wkdy Day, !- Monday Schedule:Day Name
  NECB-G-Service Water Heating Default|Wkdy Day, !- Tuesday Schedule:Day Name
  NECB-G-Service Water Heating Default|Wkdy Day, !- Wednesday Schedule:Day Name
  NECB-G-Service Water Heating Default|Wkdy Day, !- Thursday Schedule:Day Name
  NECB-G-Service Water Heating Default|Wkdy Day, !- Friday Schedule:Day Name
  NECB-G-Service Water Heating Sat Day,   !- Saturday Schedule:Day Name
  NECB-G-Service Water Heating Default,   !- Holiday Schedule:Day Name
  NECB-G-Service Water Heating Default,   !- SummerDesignDay Schedule:Day Name
  NECB-G-Service Water Heating Default,   !- WinterDesignDay Schedule:Day Name
  NECB-G-Service Water Heating Default,   !- CustomDay1 Schedule:Day Name
  NECB-G-Service Water Heating Default;   !- CustomDay2 Schedule:Day Name

Schedule:Year,
  NECB-G-Service Water Heating,           !- Name
  Fractional,                             !- Schedule Type Limits Name
  NECB-G-Service Water Heating Week Rule - Jan1-Dec31, !- Schedule:Week Name 1
  1,                                      !- Start Month 1
  1,                                      !- Start Day 1
  12,                                     !- End Month 1
  31;                                     !- End Day 1

Schedule:Week:Daily,
  ON_OFF_ALWAYS_OFF Week Rule - Jan1-Dec31, !- Name
  sunON_OFF_ALWAYS_OFF 2,                 !- Sunday Schedule:Day Name
  wkdON_OFF_ALWAYS_OFF 2,                 !- Monday Schedule:Day Name
  wkdON_OFF_ALWAYS_OFF 2,                 !- Tuesday Schedule:Day Name
  wkdON_OFF_ALWAYS_OFF 2,                 !- Wednesday Schedule:Day Name
  wkdON_OFF_ALWAYS_OFF 2,                 !- Thursday Schedule:Day Name
  wkdON_OFF_ALWAYS_OFF 2,                 !- Friday Schedule:Day Name
  satON_OFF_ALWAYS_OFF 2,                 !- Saturday Schedule:Day Name
  Schedule Day 5,                         !- Holiday Schedule:Day Name
  Schedule Day 5,                         !- SummerDesignDay Schedule:Day Name
  Schedule Day 5,                         !- WinterDesignDay Schedule:Day Name
  Schedule Day 5,                         !- CustomDay1 Schedule:Day Name
  Schedule Day 5;                         !- CustomDay2 Schedule:Day Name

Schedule:Year,
  ON_OFF_ALWAYS_OFF,                      !- Name
  OnOff,                                  !- Schedule Type Limits Name
  ON_OFF_ALWAYS_OFF Week Rule - Jan1-Dec31, !- Schedule:Week Name 1
  1,                                      !- Start Month 1
  1,                                      !- Start Day 1
  12,                                     !- End Month 1
  31;                                     !- End Day 1

Schedule:Week:Daily,
  Schedule Ruleset 1 Week Rule - Jan1-Dec31, !- Name
  Schedule Day 6,                         !- Sunday Schedule:Day Name
  Schedule Day 6,                         !- Monday Schedule:Day Name
  Schedule Day 6,                         !- Tuesday Schedule:Day Name
  Schedule Day 6,                         !- Wednesday Schedule:Day Name
  Schedule Day 6,                         !- Thursday Schedule:Day Name
  Schedule Day 6,                         !- Friday Schedule:Day Name
  Schedule Day 6,                         !- Saturday Schedule:Day Name
  Schedule Day 6,                         !- Holiday Schedule:Day Name
  Schedule Day 6,                         !- SummerDesignDay Schedule:Day Name
  Schedule Day 6,                         !- WinterDesignDay Schedule:Day Name
  Schedule Day 6,                         !- CustomDay1 Schedule:Day Name
  Schedule Day 6;                         !- CustomDay2 Schedule:Day Name

Schedule:Year,
  Schedule Ruleset 1,                     !- Name
  Temperature,                            !- Schedule Type Limits Name
  Schedule Ruleset 1 Week Rule - Jan1-Dec31, !- Schedule:Week Name 1
  1,                                      !- Start Month 1
  1,                                      !- Start Day 1
  12,                                     !- End Month 1
  31;                                     !- End Day 1

Schedule:Week:Daily,
  Schedule Ruleset 2 Week Rule - Jan1-Dec31, !- Name
  Schedule Day 7,                         !- Sunday Schedule:Day Name
  Schedule Day 7,                         !- Monday Schedule:Day Name
  Schedule Day 7,                         !- Tuesday Schedule:Day Name
  Schedule Day 7,                         !- Wednesday Schedule:Day Name
  Schedule Day 7,                         !- Thursday Schedule:Day Name
  Schedule Day 7,                         !- Friday Schedule:Day Name
  Schedule Day 7,                         !- Saturday Schedule:Day Name
  Schedule Day 7,                         !- Holiday Schedule:Day Name
  Schedule Day 7,                         !- SummerDesignDay Schedule:Day Name
  Schedule Day 7,                         !- WinterDesignDay Schedule:Day Name
  Schedule Day 7,                         !- CustomDay1 Schedule:Day Name
  Schedule Day 7;                         !- CustomDay2 Schedule:Day Name

Schedule:Year,
  Schedule Ruleset 2,                     !- Name
  Temperature,                            !- Schedule Type Limits Name
  Schedule Ruleset 2 Week Rule - Jan1-Dec31, !- Schedule:Week Name 1
  1,                                      !- Start Month 1
  1,                                      !- Start Day 1
  12,                                     !- End Month 1
  31;                                     !- End Day 1

Schedule:Week:Daily,
  Schedule Ruleset 3 Week Rule - Jan1-Dec31, !- Name
  Schedule Day 8,                         !- Sunday Schedule:Day Name
  Schedule Day 8,                         !- Monday Schedule:Day Name
  Schedule Day 8,                         !- Tuesday Schedule:Day Name
  Schedule Day 8,                         !- Wednesday Schedule:Day Name
  Schedule Day 8,                         !- Thursday Schedule:Day Name
  Schedule Day 8,                         !- Friday Schedule:Day Name
  Schedule Day 8,                         !- Saturday Schedule:Day Name
  Schedule Day 8,                         !- Holiday Schedule:Day Name
  Schedule Day 8,                         !- SummerDesignDay Schedule:Day Name
  Schedule Day 8,                         !- WinterDesignDay Schedule:Day Name
  Schedule Day 8,                         !- CustomDay1 Schedule:Day Name
  Schedule Day 8;                         !- CustomDay2 Schedule:Day Name

Schedule:Year,
  Schedule Ruleset 3,                     !- Name
  Temperature,                            !- Schedule Type Limits Name
  Schedule Ruleset 3 Week Rule - Jan1-Dec31, !- Schedule:Week Name 1
  1,                                      !- Start Month 1
  1,                                      !- Start Day 1
  12,                                     !- End Month 1
  31;                                     !- End Day 1

Schedule:Week:Daily,
  Service Water Loop Temp - 140F Week Rule - Jan1-Dec31, !- Name
  Service Water Loop Temp - 140F Default, !- Sunday Schedule:Day Name
  Service Water Loop Temp - 140F Default, !- Monday Schedule:Day Name
  Service Water Loop Temp - 140F Default, !- Tuesday Schedule:Day Name
  Service Water Loop Temp - 140F Default, !- Wednesday Schedule:Day Name
  Service Water Loop Temp - 140F Default, !- Thursday Schedule:Day Name
  Service Water Loop Temp - 140F Default, !- Friday Schedule:Day Name
  Service Water Loop Temp - 140F Default, !- Saturday Schedule:Day Name
  Service Water Loop Temp - 140F Default, !- Holiday Schedule:Day Name
  Service Water Loop Temp - 140F Default, !- SummerDesignDay Schedule:Day Name
  Service Water Loop Temp - 140F Default, !- WinterDesignDay Schedule:Day Name
  Service Water Loop Temp - 140F Default, !- CustomDay1 Schedule:Day Name
  Service Water Loop Temp - 140F Default; !- CustomDay2 Schedule:Day Name

Schedule:Year,
  Service Water Loop Temp - 140F,         !- Name
  Temperature,                            !- Schedule Type Limits Name
  Service Water Loop Temp - 140F Week Rule - Jan1-Dec31, !- Schedule:Week Name 1
  1,                                      !- Start Month 1
  1,                                      !- Start Day 1
  12,                                     !- End Month 1
  31;                                     !- End Day 1

Schedule:Week:Daily,
  Water Heater Ambient Temp Schedule 71.6F Week Rule - Jan1-Dec31, !- Name
  Water Heater Ambient Temp Schedule 71.6F Default, !- Sunday Schedule:Day Name
  Water Heater Ambient Temp Schedule 71.6F Default, !- Monday Schedule:Day Name
  Water Heater Ambient Temp Schedule 71.6F Default, !- Tuesday Schedule:Day Name
  Water Heater Ambient Temp Schedule 71.6F Default, !- Wednesday Schedule:Day Name
  Water Heater Ambient Temp Schedule 71.6F Default, !- Thursday Schedule:Day Name
  Water Heater Ambient Temp Schedule 71.6F Default, !- Friday Schedule:Day Name
  Water Heater Ambient Temp Schedule 71.6F Default, !- Saturday Schedule:Day Name
  Water Heater Ambient Temp Schedule 71.6F Default, !- Holiday Schedule:Day Name
  Water Heater Ambient Temp Schedule 71.6F Default, !- SummerDesignDay Schedule:Day Name
  Water Heater Ambient Temp Schedule 71.6F Default, !- WinterDesignDay Schedule:Day Name
  Water Heater Ambient Temp Schedule 71.6F Default, !- CustomDay1 Schedule:Day Name
  Water Heater Ambient Temp Schedule 71.6F Default; !- CustomDay2 Schedule:Day Name

Schedule:Year,
  Water Heater Ambient Temp Schedule 71.6F, !- Name
  Temperature,                            !- Schedule Type Limits Name
  Water Heater Ambient Temp Schedule 71.6F Week Rule - Jan1-Dec31, !- Schedule:Week Name 1
  1,                                      !- Start Month 1
  1,                                      !- Start Day 1
  12,                                     !- End Month 1
  31;                                     !- End Day 1

OutdoorAir:Node,
  Model Outdoor Air Node;                 !- Name

AirLoopHVAC,
  sys_1|doas|shr>erv|sc>ccashp|sh>ccashp|ssf>cv|zh>b-e|zc>ptac|srf>none|, !- Name
  ,                                       !- Controller List Name
  Air Loop HVAC 1 AvailabilityManagerAssignmentList, !- Availability Manager List Name
  AutoSize,                               !- Design Supply Air Flow Rate {m3/s}
  sys_1|doas|shr>erv|sc>ccashp|sh>ccashp|ssf>cv|zh>b-e|zc>ptac|srf>none| Supply Branches, !- Branch List Name
  ,                                       !- Connector List Name
  sys_1|doas|shr>erv|sc>ccashp|sh>ccashp|ssf>cv|zh>b-e|zc>ptac|srf>none| Supply Inlet Node, !- Supply Side Inlet Node Name
  sys_1|doas|shr>erv|sc>ccashp|sh>ccashp|ssf>cv|zh>b-e|zc>ptac|srf>none| Demand Outlet Node, !- Demand Side Outlet Node Name
  sys_1|doas|shr>erv|sc>ccashp|sh>ccashp|ssf>cv|zh>b-e|zc>ptac|srf>none| Demand Inlet Nodes, !- Demand Side Inlet Node Names
  sys_1|doas|shr>erv|sc>ccashp|sh>ccashp|ssf>cv|zh>b-e|zc>ptac|srf>none| Supply Outlet Nodes, !- Supply Side Outlet Node Names
  1;                                      !- Design Return Air Flow Fraction of Supply Air Flow

NodeList,
  sys_1|doas|shr>erv|sc>ccashp|sh>ccashp|ssf>cv|zh>b-e|zc>ptac|srf>none| Supply Outlet Nodes, !- Name
  sys_1|doas|shr>erv|sc>ccashp|sh>ccashp|ssf>cv|zh>b-e|zc>ptac|srf>none| Supply Outlet Node; !- Node Name 1

NodeList,
  sys_1|doas|shr>erv|sc>ccashp|sh>ccashp|ssf>cv|zh>b-e|zc>ptac|srf>none| Demand Inlet Nodes, !- Name
  sys_1|doas|shr>erv|sc>ccashp|sh>ccashp|ssf>cv|zh>b-e|zc>ptac|srf>none| Demand Inlet Node; !- Node Name 1

Sizing:System,
  sys_1|doas|shr>erv|sc>ccashp|sh>ccashp|ssf>cv|zh>b-e|zc>ptac|srf>none|, !- AirLoop Name
  VentilationRequirement,                 !- Type of Load to Size On
  Autosize,                               !- Design Outdoor Air Flow Rate {m3/s}
  1,                                      !- Central Heating Maximum System Air Flow Ratio
  7,                                      !- Preheat Design Temperature {C}
  0.008,                                  !- Preheat Design Humidity Ratio {kgWater/kgDryAir}
  13,                                     !- Precool Design Temperature {C}
  0.008,                                  !- Precool Design Humidity Ratio {kgWater/kgDryAir}
  13,                                     !- Central Cooling Design Supply Air Temperature {C}
  22,                                     !- Central Heating Design Supply Air Temperature {C}
  NonCoincident,                          !- Type of Zone Sum to Use
  Yes,                                    !- 100% Outdoor Air in Cooling
  Yes,                                    !- 100% Outdoor Air in Heating
  0.0085,                                 !- Central Cooling Design Supply Air Humidity Ratio {kgWater/kgDryAir}
  0.008,                                  !- Central Heating Design Supply Air Humidity Ratio {kgWater/kgDryAir}
  DesignDay,                              !- Cooling Supply Air Flow Rate Method
  0,                                      !- Cooling Supply Air Flow Rate {m3/s}
  0.0099676501,                           !- Cooling Supply Air Flow Rate Per Floor Area {m3/s-m2}
  1,                                      !- Cooling Fraction of Autosized Cooling Supply Air Flow Rate
  3.9475456e-05,                          !- Cooling Supply Air Flow Rate Per Unit Cooling Capacity {m3/s-W}
  DesignDay,                              !- Heating Supply Air Flow Rate Method
  0,                                      !- Heating Supply Air Flow Rate {m3/s}
  0.0099676501,                           !- Heating Supply Air Flow Rate Per Floor Area {m3/s-m2}
  1,                                      !- Heating Fraction of Autosized Heating Supply Air Flow Rate
  1,                                      !- Heating Fraction of Autosized Cooling Supply Air Flow Rate
  3.1588213e-05,                          !- Heating Supply Air Flow Rate Per Unit Heating Capacity {m3/s-W}
  ZoneSum,                                !- System Outdoor Air Method
  1,                                      !- Zone Maximum Outdoor Air Fraction {dimensionless}
  CoolingDesignCapacity,                  !- Cooling Design Capacity Method
  Autosize,                               !- Cooling Design Capacity {W}
  234.7,                                  !- Cooling Design Capacity Per Floor Area {W/m2}
  1,                                      !- Fraction of Autosized Cooling Design Capacity
  HeatingDesignCapacity,                  !- Heating Design Capacity Method
  Autosize,                               !- Heating Design Capacity {W}
  157,                                    !- Heating Design Capacity Per Floor Area {W/m2}
  1,                                      !- Fraction of Autosized Heating Design Capacity
  OnOff,                                  !- Central Cooling Capacity Control Method
  Autosize;                               !- Occupant Diversity

AvailabilityManagerAssignmentList,
  Air Loop HVAC 1 AvailabilityManagerAssignmentList, !- Name
  AvailabilityManager:NightCycle,         !- Availability Manager Object Type 1
  Availability Manager Night Cycle 26;    !- Availability Manager Name 1

AvailabilityManager:NightCycle,
  Availability Manager Night Cycle 26,    !- Name
  Always On Discrete,                     !- Applicability Schedule Name
  sys_1|doas|shr>none|sc>ccashp|sh>ccashp|ssf>cv|zh>b-e|zc>ptac|srf>none| Occ Sch, !- Fan Schedule Name
  CycleOnAny,                             !- Control Type
  1,                                      !- Thermostat Tolerance {deltaC}
  FixedRunTime,                           !- Cycling Run Time Control Type
  3600;                                   !- Cycling Run Time {s}

BranchList,
  sys_1|doas|shr>erv|sc>ccashp|sh>ccashp|ssf>cv|zh>b-e|zc>ptac|srf>none| Supply Branches, !- Name
  sys_1|doas|shr>erv|sc>ccashp|sh>ccashp|ssf>cv|zh>b-e|zc>ptac|srf>none| Main Branch; !- Branch Name 1

Branch,
  sys_1|doas|shr>erv|sc>ccashp|sh>ccashp|ssf>cv|zh>b-e|zc>ptac|srf>none| Main Branch, !- Name
  ,                                       !- Pressure Drop Curve Name
  AirLoopHVAC:OutdoorAirSystem,           !- Component Object Type 1
  Air Loop HVAC Outdoor Air System 1,     !- Component Name 1
  sys_1|doas|shr>erv|sc>ccashp|sh>ccashp|ssf>cv|zh>b-e|zc>ptac|srf>none| Supply Inlet Node, !- Component Inlet Node Name 1
  sys_1|doas|shr>erv|sc>ccashp|sh>ccashp|ssf>cv|zh>b-e|zc>ptac|srf>none| Mixed Air Node, !- Component Outlet Node Name 1
  CoilSystem:Cooling:DX,                  !- Component Object Type 2
  CoilCoolingDXVariableSpeed_CCASHP CoilSystem, !- Component Name 2
  sys_1|doas|shr>erv|sc>ccashp|sh>ccashp|ssf>cv|zh>b-e|zc>ptac|srf>none| Mixed Air Node, !- Component Inlet Node Name 2
  CoilCoolingDXVariableSpeed_CCASHP Outlet Air Node, !- Component Outlet Node Name 2
  CoilSystem:Heating:DX,                  !- Component Object Type 3
  CoilHeatingDXVariableSpeed_CCASHP CoilSystem, !- Component Name 3
  CoilCoolingDXVariableSpeed_CCASHP Outlet Air Node, !- Component Inlet Node Name 3
  CoilHeatingDXVariableSpeed_CCASHP Outlet Air Node, !- Component Outlet Node Name 3
  Coil:Heating:Electric,                  !- Component Object Type 4
  CoilHeatingElectric,                    !- Component Name 4
  CoilHeatingDXVariableSpeed_CCASHP Outlet Air Node, !- Component Inlet Node Name 4
  CoilHeatingElectric Outlet Air Node,    !- Component Outlet Node Name 4
  Fan:ConstantVolume,                     !- Component Object Type 5
  Supply Fan,                             !- Component Name 5
  CoilHeatingElectric Outlet Air Node,    !- Component Inlet Node Name 5
  sys_1|doas|shr>erv|sc>ccashp|sh>ccashp|ssf>cv|zh>b-e|zc>ptac|srf>none| Supply Outlet Node; !- Component Outlet Node Name 5

AirLoopHVAC:OutdoorAirSystem,
  Air Loop HVAC Outdoor Air System 1,     !- Name
  Air Loop HVAC Outdoor Air System 1 Controller List, !- Controller List Name
  Air Loop HVAC Outdoor Air System 1 Equipment List; !- Outdoor Air Equipment List Name

AirLoopHVAC:ControllerList,
  Air Loop HVAC Outdoor Air System 1 Controller List, !- Name
  Controller:OutdoorAir,                  !- Controller Object Type 1
  Controller Outdoor Air 1;               !- Controller Name 1

Controller:OutdoorAir,
  Controller Outdoor Air 1,               !- Name
  sys_1|doas|shr>none|sc>ccashp|sh>ccashp|ssf>cv|zh>b-e|zc>ptac|srf>none| ERV Secondary Inlet Air Node, !- Relief Air Outlet Node Name
  sys_1|doas|shr>erv|sc>ccashp|sh>ccashp|ssf>cv|zh>b-e|zc>ptac|srf>none| Supply Inlet Node, !- Return Air Node Name
  sys_1|doas|shr>erv|sc>ccashp|sh>ccashp|ssf>cv|zh>b-e|zc>ptac|srf>none| Mixed Air Node, !- Mixed Air Node Name
  sys_1|doas|shr>erv|sc>ccashp|sh>ccashp|ssf>cv|zh>b-e|zc>ptac|srf>none| Outdoor Air Node, !- Actuator Node Name
  Autosize,                               !- Minimum Outdoor Air Flow Rate {m3/s}
  Autosize,                               !- Maximum Outdoor Air Flow Rate {m3/s}
  NoEconomizer,                           !- Economizer Control Type
  ModulateFlow,                           !- Economizer Control Action Type
  28,                                     !- Economizer Maximum Limit Dry-Bulb Temperature {C}
  64000,                                  !- Economizer Maximum Limit Enthalpy {J/kg}
  ,                                       !- Economizer Maximum Limit Dewpoint Temperature {C}
  ,                                       !- Electronic Enthalpy Limit Curve Name
  -100,                                   !- Economizer Minimum Limit Dry-Bulb Temperature {C}
  NoLockout,                              !- Lockout Type
  FixedMinimum,                           !- Minimum Limit Type
  sys_1|doas|shr>none|sc>ccashp|sh>ccashp|ssf>cv|zh>b-e|zc>ptac|srf>none| Occ Sch, !- Minimum Outdoor Air Schedule Name
  ,                                       !- Minimum Fraction of Outdoor Air Schedule Name
  ,                                       !- Maximum Fraction of Outdoor Air Schedule Name
  Controller Mechanical Ventilation 1,    !- Mechanical Ventilation Controller Name
  ,                                       !- Time of Day Economizer Control Schedule Name
  No,                                     !- High Humidity Control
  ,                                       !- Humidistat Control Zone Name
  1,                                      !- High Humidity Outdoor Air Flow Ratio
  Yes,                                    !- Control High Indoor Humidity Based on Outdoor Humidity Ratio
  BypassWhenWithinEconomizerLimits,       !- Heat Recovery Bypass Control Type
  InterlockedWithMechanicalCooling;       !- Economizer Operation Staging

OutdoorAir:NodeList,
  sys_1|doas|shr>erv|sc>ccashp|sh>ccashp|ssf>cv|zh>b-e|zc>ptac|srf>none| Outdoor Air Node; !- Node or NodeList Name 1

AirLoopHVAC:OutdoorAirSystem:EquipmentList,
  Air Loop HVAC Outdoor Air System 1 Equipment List, !- Name
  OutdoorAir:Mixer,                       !- Component Object Type 1
  Air Loop HVAC Outdoor Air System 1 Outdoor Air Mixer, !- Component Name 1
  HeatExchanger:AirToAir:SensibleAndLatent, !- Component Object Type 2
  sys_1|doas|shr>none|sc>ccashp|sh>ccashp|ssf>cv|zh>b-e|zc>ptac|srf>none| ERV; !- Component Name 2

OutdoorAir:Mixer,
  Air Loop HVAC Outdoor Air System 1 Outdoor Air Mixer, !- Name
  sys_1|doas|shr>erv|sc>ccashp|sh>ccashp|ssf>cv|zh>b-e|zc>ptac|srf>none| Mixed Air Node, !- Mixed Air Node Name
  sys_1|doas|shr>none|sc>ccashp|sh>ccashp|ssf>cv|zh>b-e|zc>ptac|srf>none| ERV Primary Outlet Air Node, !- Outdoor Air Stream Node Name
  sys_1|doas|shr>none|sc>ccashp|sh>ccashp|ssf>cv|zh>b-e|zc>ptac|srf>none| ERV Secondary Inlet Air Node, !- Relief Air Stream Node Name
  sys_1|doas|shr>erv|sc>ccashp|sh>ccashp|ssf>cv|zh>b-e|zc>ptac|srf>none| Supply Inlet Node; !- Return Air Stream Node Name

HeatExchanger:AirToAir:SensibleAndLatent,
  sys_1|doas|shr>none|sc>ccashp|sh>ccashp|ssf>cv|zh>b-e|zc>ptac|srf>none| ERV, !- Name
  Always On Discrete,                     !- Availability Schedule Name
  Autosize,                               !- Nominal Supply Air Flow Rate {m3/s}
  0.5,                                    !- Sensible Effectiveness at 100% Heating Air Flow {dimensionless}
  0.5,                                    !- Latent Effectiveness at 100% Heating Air Flow {dimensionless}
  0.5,                                    !- Sensible Effectiveness at 100% Cooling Air Flow {dimensionless}
  0.5,                                    !- Latent Effectiveness at 100% Cooling Air Flow {dimensionless}
  sys_1|doas|shr>erv|sc>ccashp|sh>ccashp|ssf>cv|zh>b-e|zc>ptac|srf>none| Outdoor Air Node, !- Supply Air Inlet Node Name
  sys_1|doas|shr>none|sc>ccashp|sh>ccashp|ssf>cv|zh>b-e|zc>ptac|srf>none| ERV Primary Outlet Air Node, !- Supply Air Outlet Node Name
  sys_1|doas|shr>none|sc>ccashp|sh>ccashp|ssf>cv|zh>b-e|zc>ptac|srf>none| ERV Secondary Inlet Air Node, !- Exhaust Air Inlet Node Name
  sys_1|doas|shr>erv|sc>ccashp|sh>ccashp|ssf>cv|zh>b-e|zc>ptac|srf>none| Relief Air Node, !- Exhaust Air Outlet Node Name
  505.011076144309,                       !- Nominal Electric Power {W}
  Yes,                                    !- Supply Air Outlet Temperature Control
  Rotary,                                 !- Heat Exchanger Type
  ExhaustOnly,                            !- Frost Control Type
  -23.3,                                  !- Threshold Temperature {C}
  0.167,                                  !- Initial Defrost Time Fraction {dimensionless}
  1.44,                                   !- Rate of Defrost Time Fraction Increase {1/K}
  Yes,                                    !- Economizer Lockout
  sys_1|doas|shr>none|sc>ccashp|sh>ccashp|ssf>cv|zh>b-e|zc>ptac|srf>none| ERV_SensHeatEff 1, !- Sensible Effectiveness of Heating Air Flow Curve Name
  sys_1|doas|shr>none|sc>ccashp|sh>ccashp|ssf>cv|zh>b-e|zc>ptac|srf>none| ERV_LatHeatEff 1, !- Latent Effectiveness of Heating Air Flow Curve Name
  sys_1|doas|shr>none|sc>ccashp|sh>ccashp|ssf>cv|zh>b-e|zc>ptac|srf>none| ERV_SensCoolEff 1, !- Sensible Effectiveness of Cooling Air Flow Curve Name
  sys_1|doas|shr>none|sc>ccashp|sh>ccashp|ssf>cv|zh>b-e|zc>ptac|srf>none| ERV_LatCoolEff 1; !- Latent Effectiveness of Cooling Air Flow Curve Name

Table:Lookup,
  sys_1|doas|shr>none|sc>ccashp|sh>ccashp|ssf>cv|zh>b-e|zc>ptac|srf>none| ERV_SensHeatEff 1, !- Name
  sys_1|doas|shr>none|sc>ccashp|sh>ccashp|ssf>cv|zh>b-e|zc>ptac|srf>none| ERV_SensHeatEff 1 Independent Variable List, !- Independent Variable List Name
  DivisorOnly,                            !- Normalization Method
  0.5,                                    !- Normalization Divisor
  0,                                      !- Minimum Output {BasedOnField A4}
  10,                                     !- Maximum Output {BasedOnField A4}
  Dimensionless,                          !- Output Unit Type
  ,                                       !- External File Name
  ,                                       !- External File Column Number
  ,                                       !- External File Starting Row Number
  0.5,                                    !- Output Value 1 {BasedOnField A4}
  0.5;                                    !- Output Value 2 {BasedOnField A4}

Table:IndependentVariableList,
  sys_1|doas|shr>none|sc>ccashp|sh>ccashp|ssf>cv|zh>b-e|zc>ptac|srf>none| ERV_SensHeatEff 1 Independent Variable List, !- Name
  sys_1|doas|shr>none|sc>ccashp|sh>ccashp|ssf>cv|zh>b-e|zc>ptac|srf>none| ERV_SensibleHeating_IndependentVariable; !- Independent Variable Name 1

Table:IndependentVariable,
  sys_1|doas|shr>none|sc>ccashp|sh>ccashp|ssf>cv|zh>b-e|zc>ptac|srf>none| ERV_SensibleHeating_IndependentVariable, !- Name
  Linear,                                 !- Interpolation Method
  Linear,                                 !- Extrapolation Method
  0,                                      !- Minimum Value {BasedOnField A4}
  10,                                     !- Maximum Value {BasedOnField A4}
  ,                                       !- Normalization Reference Value {BasedOnField A4}
  Dimensionless,                          !- Unit Type
  ,                                       !- External File Name
  ,                                       !- External File Column Number
  ,                                       !- External File Starting Row Number
  0.75,                                   !- Value 1
  1;                                      !- Value 2

Table:Lookup,
  sys_1|doas|shr>none|sc>ccashp|sh>ccashp|ssf>cv|zh>b-e|zc>ptac|srf>none| ERV_LatHeatEff 1, !- Name
  sys_1|doas|shr>none|sc>ccashp|sh>ccashp|ssf>cv|zh>b-e|zc>ptac|srf>none| ERV_LatHeatEff 1 Independent Variable List, !- Independent Variable List Name
  DivisorOnly,                            !- Normalization Method
  0.5,                                    !- Normalization Divisor
  0,                                      !- Minimum Output {BasedOnField A4}
  10,                                     !- Maximum Output {BasedOnField A4}
  Dimensionless,                          !- Output Unit Type
  ,                                       !- External File Name
  ,                                       !- External File Column Number
  ,                                       !- External File Starting Row Number
  0.5,                                    !- Output Value 1 {BasedOnField A4}
  0.5;                                    !- Output Value 2 {BasedOnField A4}

Table:IndependentVariableList,
  sys_1|doas|shr>none|sc>ccashp|sh>ccashp|ssf>cv|zh>b-e|zc>ptac|srf>none| ERV_LatHeatEff 1 Independent Variable List, !- Name
  sys_1|doas|shr>none|sc>ccashp|sh>ccashp|ssf>cv|zh>b-e|zc>ptac|srf>none| ERV_LatentHeating_IndependentVariable; !- Independent Variable Name 1

Table:IndependentVariable,
  sys_1|doas|shr>none|sc>ccashp|sh>ccashp|ssf>cv|zh>b-e|zc>ptac|srf>none| ERV_LatentHeating_IndependentVariable, !- Name
  Linear,                                 !- Interpolation Method
  Linear,                                 !- Extrapolation Method
  0,                                      !- Minimum Value {BasedOnField A4}
  10,                                     !- Maximum Value {BasedOnField A4}
  ,                                       !- Normalization Reference Value {BasedOnField A4}
  Dimensionless,                          !- Unit Type
  ,                                       !- External File Name
  ,                                       !- External File Column Number
  ,                                       !- External File Starting Row Number
  0.75,                                   !- Value 1
  1;                                      !- Value 2

Table:Lookup,
  sys_1|doas|shr>none|sc>ccashp|sh>ccashp|ssf>cv|zh>b-e|zc>ptac|srf>none| ERV_SensCoolEff 1, !- Name
  sys_1|doas|shr>none|sc>ccashp|sh>ccashp|ssf>cv|zh>b-e|zc>ptac|srf>none| ERV_SensCoolEff 1 Independent Variable List, !- Independent Variable List Name
  DivisorOnly,                            !- Normalization Method
  0.5,                                    !- Normalization Divisor
  0,                                      !- Minimum Output {BasedOnField A4}
  10,                                     !- Maximum Output {BasedOnField A4}
  Dimensionless,                          !- Output Unit Type
  ,                                       !- External File Name
  ,                                       !- External File Column Number
  ,                                       !- External File Starting Row Number
  0.5,                                    !- Output Value 1 {BasedOnField A4}
  0.5;                                    !- Output Value 2 {BasedOnField A4}

Table:IndependentVariableList,
  sys_1|doas|shr>none|sc>ccashp|sh>ccashp|ssf>cv|zh>b-e|zc>ptac|srf>none| ERV_SensCoolEff 1 Independent Variable List, !- Name
  sys_1|doas|shr>none|sc>ccashp|sh>ccashp|ssf>cv|zh>b-e|zc>ptac|srf>none| ERV_SensibleCooling_IndependentVariable; !- Independent Variable Name 1

Table:IndependentVariable,
  sys_1|doas|shr>none|sc>ccashp|sh>ccashp|ssf>cv|zh>b-e|zc>ptac|srf>none| ERV_SensibleCooling_IndependentVariable, !- Name
  Linear,                                 !- Interpolation Method
  Linear,                                 !- Extrapolation Method
  0,                                      !- Minimum Value {BasedOnField A4}
  10,                                     !- Maximum Value {BasedOnField A4}
  ,                                       !- Normalization Reference Value {BasedOnField A4}
  Dimensionless,                          !- Unit Type
  ,                                       !- External File Name
  ,                                       !- External File Column Number
  ,                                       !- External File Starting Row Number
  0.75,                                   !- Value 1
  1;                                      !- Value 2

Table:Lookup,
  sys_1|doas|shr>none|sc>ccashp|sh>ccashp|ssf>cv|zh>b-e|zc>ptac|srf>none| ERV_LatCoolEff 1, !- Name
  sys_1|doas|shr>none|sc>ccashp|sh>ccashp|ssf>cv|zh>b-e|zc>ptac|srf>none| ERV_LatCoolEff 1 Independent Variable List, !- Independent Variable List Name
  DivisorOnly,                            !- Normalization Method
  0.5,                                    !- Normalization Divisor
  0,                                      !- Minimum Output {BasedOnField A4}
  10,                                     !- Maximum Output {BasedOnField A4}
  Dimensionless,                          !- Output Unit Type
  ,                                       !- External File Name
  ,                                       !- External File Column Number
  ,                                       !- External File Starting Row Number
  0.5,                                    !- Output Value 1 {BasedOnField A4}
  0.5;                                    !- Output Value 2 {BasedOnField A4}

Table:IndependentVariableList,
  sys_1|doas|shr>none|sc>ccashp|sh>ccashp|ssf>cv|zh>b-e|zc>ptac|srf>none| ERV_LatCoolEff 1 Independent Variable List, !- Name
  sys_1|doas|shr>none|sc>ccashp|sh>ccashp|ssf>cv|zh>b-e|zc>ptac|srf>none| ERV_LatentCooling_IndependentVariable; !- Independent Variable Name 1

Table:IndependentVariable,
  sys_1|doas|shr>none|sc>ccashp|sh>ccashp|ssf>cv|zh>b-e|zc>ptac|srf>none| ERV_LatentCooling_IndependentVariable, !- Name
  Linear,                                 !- Interpolation Method
  Linear,                                 !- Extrapolation Method
  0,                                      !- Minimum Value {BasedOnField A4}
  10,                                     !- Maximum Value {BasedOnField A4}
  ,                                       !- Normalization Reference Value {BasedOnField A4}
  Dimensionless,                          !- Unit Type
  ,                                       !- External File Name
  ,                                       !- External File Column Number
  ,                                       !- External File Starting Row Number
  0.75,                                   !- Value 1
  1;                                      !- Value 2

SetpointManager:OutdoorAirPretreat,
  Setpoint Manager Outdoor Air Pretreat 1, !- Name
  Temperature,                            !- Control Variable
  -99,                                    !- Minimum Setpoint Temperature {C}
  99,                                     !- Maximum Setpoint Temperature {C}
  1e-05,                                  !- Minimum Setpoint Humidity Ratio {kgWater/kgDryAir}
  1,                                      !- Maximum Setpoint Humidity Ratio {kgWater/kgDryAir}
  sys_1|doas|shr>erv|sc>ccashp|sh>ccashp|ssf>cv|zh>b-e|zc>ptac|srf>none| Mixed Air Node, !- Reference Setpoint Node Name
  sys_1|doas|shr>erv|sc>ccashp|sh>ccashp|ssf>cv|zh>b-e|zc>ptac|srf>none| Mixed Air Node, !- Mixed Air Stream Node Name
  sys_1|doas|shr>erv|sc>ccashp|sh>ccashp|ssf>cv|zh>b-e|zc>ptac|srf>none| Outdoor Air Node, !- Outdoor Air Stream Node Name
  sys_1|doas|shr>erv|sc>ccashp|sh>ccashp|ssf>cv|zh>b-e|zc>ptac|srf>none| Supply Inlet Node, !- Return Air Stream Node Name
  sys_1|doas|shr>none|sc>ccashp|sh>ccashp|ssf>cv|zh>b-e|zc>ptac|srf>none| ERV Primary Outlet Air Node; !- Setpoint Node or NodeList Name

SetpointManager:MixedAir,
  sys_1|doas|shr>erv|sc>ccashp|sh>ccashp|ssf>cv|zh>b-e|zc>ptac|srf>none| Mixed Air Node OS Default SPM, !- Name
  Temperature,                            !- Control Variable
  sys_1|doas|shr>erv|sc>ccashp|sh>ccashp|ssf>cv|zh>b-e|zc>ptac|srf>none| Supply Outlet Node, !- Reference Setpoint Node Name
  CoilHeatingElectric Outlet Air Node,    !- Fan Inlet Node Name
  sys_1|doas|shr>erv|sc>ccashp|sh>ccashp|ssf>cv|zh>b-e|zc>ptac|srf>none| Supply Outlet Node, !- Fan Outlet Node Name
  sys_1|doas|shr>erv|sc>ccashp|sh>ccashp|ssf>cv|zh>b-e|zc>ptac|srf>none| Mixed Air Node; !- Setpoint Node or NodeList Name

CoilSystem:Cooling:DX,
  CoilCoolingDXVariableSpeed_CCASHP CoilSystem, !- Name
  ,                                       !- Availability Schedule Name
  sys_1|doas|shr>erv|sc>ccashp|sh>ccashp|ssf>cv|zh>b-e|zc>ptac|srf>none| Mixed Air Node, !- DX Cooling Coil System Inlet Node Name
  CoilCoolingDXVariableSpeed_CCASHP Outlet Air Node, !- DX Cooling Coil System Outlet Node Name
  CoilCoolingDXVariableSpeed_CCASHP Outlet Air Node, !- DX Cooling Coil System Sensor Node Name
  Coil:Cooling:DX:VariableSpeed,          !- Cooling Coil Object Type
  CoilCoolingDXVariableSpeed_CCASHP;      !- Cooling Coil Name

Coil:Cooling:DX:VariableSpeed,
  CoilCoolingDXVariableSpeed_CCASHP,      !- Name
  sys_1|doas|shr>erv|sc>ccashp|sh>ccashp|ssf>cv|zh>b-e|zc>ptac|srf>none| Mixed Air Node, !- Indoor Air Inlet Node Name
  CoilCoolingDXVariableSpeed_CCASHP Outlet Air Node, !- Indoor Air Outlet Node Name
  1,                                      !- Number of Speeds {dimensionless}
  1,                                      !- Nominal Speed Level {dimensionless}
  17013.341796875,                        !- Gross Rated Total Cooling Capacity At Selected Nominal Speed Level {W}
  AutoSize,                               !- Rated Air Flow Rate At Selected Nominal Speed Level {m3/s}
  0,                                      !- Nominal Time for Condensate to Begin Leaving the Coil {s}
  0,                                      !- Initial Moisture Evaporation Rate Divided by Steady-State AC Latent Capacity {dimensionless}
  2.5,                                    !- Maximum Cycling Rate {cycles/hr}
  60,                                     !- Latent Capacity Time Constant {s}
  60,                                     !- Fan Delay Time {s}
  Mitsubishi Hyper Heating VRF Outdoor Unit CPLFFPLR curve, !- Energy Part Load Fraction Curve Name
  ,                                       !- Condenser Air Inlet Node Name
  AirCooled,                              !- Condenser Type
  0,                                      !- Evaporative Condenser Pump Rated Power Consumption {W}
  1e-06,                                  !- Crankcase Heater Capacity {W}
  ,                                       !- Crankcase Heater Capacity Function of Temperature Curve Name
  10,                                     !- Maximum Outdoor Dry-Bulb Temperature for Crankcase Heater Operation {C}
  -25,                                    !- Minimum Outdoor Dry-Bulb Temperature for Compressor Operation {C}
  ,                                       !- Supply Water Storage Tank Name
  ,                                       !- Condensate Collection Water Storage Tank Name
  0,                                      !- Basin Heater Capacity {W/K}
  2,                                      !- Basin Heater Setpoint Temperature {C}
  ,                                       !- Basin Heater Operating Schedule Name
  8914.185229,                            !- Speed Reference Unit Gross Rated Total Cooling Capacity 1 {W}
  0.79,                                   !- Speed Reference Unit Gross Rated Sensible Heat Ratio 1 {dimensionless}
  4.12,                                   !- Speed Reference Unit Gross Rated Cooling COP 1 {W/W}
  0.944,                                  !- Speed Reference Unit Rated Air Flow Rate 1 {m3/s}
  773.3,                                  !- Speed Rated Evaporator Fan Power Per Volume Flow Rate 2017 1 {W/(m3/s)}
  934.4,                                  !- Speed Rated Evaporator Fan Power Per Volume Flow Rate 2023 1 {W/(m3/s)}
  ,                                       !- Speed Reference Unit Rated Condenser Air Flow Rate 1 {m3/s}
  ,                                       !- Speed Reference Unit Rated Pad Effectiveness of Evap Precooling 1 {dimensionless}
  Mitsubishi Hyper Heating VRF Outdoor Unit CCAPFT curve, !- Speed Total Cooling Capacity Function of Temperature Curve Name 1
  Mitsubishi Hyper Heating VRF Outdoor Unit CCAPFFF curve, !- Speed Total Cooling Capacity Function of Air Flow Fraction Curve Name 1
  Mitsubishi Hyper Heating VRF Outdoor Unit CEIRFT curve, !- Speed Energy Input Ratio Function of Temperature Curve Name 1
  Mitsubishi Hyper Heating VRF Outdoor Unit CEIRFFF curve; !- Speed Energy Input Ratio Function of Air Flow Fraction Curve Name 1

Table:Lookup,
  Mitsubishi Hyper Heating VRF Outdoor Unit CPLFFPLR curve, !- Name
  Mitsubishi Hyper Heating VRF Outdoor Unit CPLFFPLR curve Independent Variable List, !- Independent Variable List Name
  None,                                   !- Normalization Method
  1,                                      !- Normalization Divisor
  ,                                       !- Minimum Output {BasedOnField A4}
  ,                                       !- Maximum Output {BasedOnField A4}
  Dimensionless,                          !- Output Unit Type
  ,                                       !- External File Name
  ,                                       !- External File Column Number
  ,                                       !- External File Starting Row Number
  0,                                      !- Output Value 1 {BasedOnField A4}
  0,                                      !- Output Value 2 {BasedOnField A4}
  0,                                      !- Output Value 3 {BasedOnField A4}
  0,                                      !- Output Value 4 {BasedOnField A4}
  0,                                      !- Output Value 5 {BasedOnField A4}
  0,                                      !- Output Value 6 {BasedOnField A4}
  0,                                      !- Output Value 7 {BasedOnField A4}
  0,                                      !- Output Value 8 {BasedOnField A4}
  0,                                      !- Output Value 9 {BasedOnField A4}
  0;                                      !- Output Value 10 {BasedOnField A4}

Table:IndependentVariableList,
  Mitsubishi Hyper Heating VRF Outdoor Unit CPLFFPLR curve Independent Variable List, !- Name
  Mitsubishi Hyper Heating VRF Outdoor Unit CPLFFPLR curve_ind_1; !- Independent Variable Name 1

Table:IndependentVariable,
  Mitsubishi Hyper Heating VRF Outdoor Unit CPLFFPLR curve_ind_1, !- Name
  Linear,                                 !- Interpolation Method
  Constant,                               !- Extrapolation Method
  0,                                      !- Minimum Value {BasedOnField A4}
  1,                                      !- Maximum Value {BasedOnField A4}
  ,                                       !- Normalization Reference Value {BasedOnField A4}
  Dimensionless,                          !- Unit Type
  ,                                       !- External File Name
  ,                                       !- External File Column Number
  ,                                       !- External File Starting Row Number
  0.1,                                    !- Value 1
  0.2,                                    !- Value 2
  0.3,                                    !- Value 3
  0.4,                                    !- Value 4
  0.5,                                    !- Value 5
  0.556,                                  !- Value 6
  0.694,                                  !- Value 7
  0.833,                                  !- Value 8
  0.972,                                  !- Value 9
  1;                                      !- Value 10

Curve:Biquadratic,
  Mitsubishi Hyper Heating VRF Outdoor Unit CCAPFT curve, !- Name
  0.041806043,                            !- Coefficient1 Constant
  0.064040587,                            !- Coefficient2 x
  -0.000556932,                           !- Coefficient3 x**2
  0.008407783,                            !- Coefficient4 y
  -0.00010814,                            !- Coefficient5 y**2
  -0.000333479,                           !- Coefficient6 x*y
  15,                                     !- Minimum Value of x {BasedOnField A2}
  24,                                     !- Maximum Value of x {BasedOnField A2}
  -5,                                     !- Minimum Value of y {BasedOnField A3}
  43;                                     !- Maximum Value of y {BasedOnField A3}

Curve:Quadratic,
  Mitsubishi Hyper Heating VRF Outdoor Unit CCAPFFF curve, !- Name
  0.8,                                    !- Coefficient1 Constant
  0.2,                                    !- Coefficient2 x
  0,                                      !- Coefficient3 x**2
  0.5,                                    !- Minimum Value of x {BasedOnField A2}
  1.5;                                    !- Maximum Value of x {BasedOnField A2}

Curve:Biquadratic,
  Mitsubishi Hyper Heating VRF Outdoor Unit CEIRFT curve, !- Name
  1.511153861,                            !- Coefficient1 Constant
  -0.059981125,                           !- Coefficient2 x
  0.000969596,                            !- Coefficient3 x**2
  -0.00845921,                            !- Coefficient4 y
  0.000389855,                            !- Coefficient5 y**2
  0.000125837,                            !- Coefficient6 x*y
  15,                                     !- Minimum Value of x {BasedOnField A2}
  24,                                     !- Maximum Value of x {BasedOnField A2}
  -5,                                     !- Minimum Value of y {BasedOnField A3}
  43;                                     !- Maximum Value of y {BasedOnField A3}

Curve:Quadratic,
  Mitsubishi Hyper Heating VRF Outdoor Unit CEIRFFF curve, !- Name
  1,                                      !- Coefficient1 Constant
  0,                                      !- Coefficient2 x
  0,                                      !- Coefficient3 x**2
  0,                                      !- Minimum Value of x {BasedOnField A2}
  1;                                      !- Maximum Value of x {BasedOnField A2}

SetpointManager:MixedAir,
  CoilCoolingDXVariableSpeed_CCASHP Outlet Air Node OS Default SPM, !- Name
  Temperature,                            !- Control Variable
  sys_1|doas|shr>erv|sc>ccashp|sh>ccashp|ssf>cv|zh>b-e|zc>ptac|srf>none| Supply Outlet Node, !- Reference Setpoint Node Name
  CoilHeatingElectric Outlet Air Node,    !- Fan Inlet Node Name
  sys_1|doas|shr>erv|sc>ccashp|sh>ccashp|ssf>cv|zh>b-e|zc>ptac|srf>none| Supply Outlet Node, !- Fan Outlet Node Name
  CoilCoolingDXVariableSpeed_CCASHP Outlet Air Node; !- Setpoint Node or NodeList Name

CoilSystem:Heating:DX,
  CoilHeatingDXVariableSpeed_CCASHP CoilSystem, !- Name
  ,                                       !- Availability Schedule Name
  Coil:Heating:DX:VariableSpeed,          !- Heating Coil Object Type
  CoilHeatingDXVariableSpeed_CCASHP;      !- Heating Coil Name

Coil:Heating:DX:VariableSpeed,
  CoilHeatingDXVariableSpeed_CCASHP,      !- Name
  CoilCoolingDXVariableSpeed_CCASHP Outlet Air Node, !- Indoor Air Inlet Node Name
  CoilHeatingDXVariableSpeed_CCASHP Outlet Air Node, !- Indoor Air Outlet Node Name
  1,                                      !- Number of Speeds {dimensionless}
  1,                                      !- Nominal Speed Level {dimensionless}
  17013.341796875,                        !- Rated Heating Capacity At Selected Nominal Speed Level {W}
  AutoSize,                               !- Rated Air Flow Rate At Selected Nominal Speed Level {m3/s}
  Mitsubishi Hyper Heating VRF Outdoor Unit HPLFFPLR curve, !- Energy Part Load Fraction Curve Name
  Mitsubishi Hyper Heating VRF Outdoor Unit Defrost HEIRFT curve, !- Defrost Energy Input Ratio Function of Temperature Curve Name
  -25,                                    !- Minimum Outdoor Dry-Bulb Temperature for Compressor Operation {C}
  ,                                       !- Outdoor Dry-Bulb Temperature to Turn On Compressor {C}
  5,                                      !- Maximum Outdoor Dry-Bulb Temperature for Defrost Operation {C}
  1e-06,                                  !- Crankcase Heater Capacity {W}
  ,                                       !- Crankcase Heater Capacity Function of Temperature Curve Name
  10,                                     !- Maximum Outdoor Dry-Bulb Temperature for Crankcase Heater Operation {C}
  ReverseCycle,                           !- Defrost Strategy
  OnDemand,                               !- Defrost Control
  0.166667,                               !- Defrost Time Period Fraction
  AutoSize,                               !- Resistive Defrost Heater Capacity {W}
  9124.853458,                            !- Speed Reference Unit Gross Rated Heating Capacity 1 {W}
  4.94613358893116,                       !- Speed Reference Unit Gross Rated Heating COP 1 {W/W}
  0.653,                                  !- Speed Reference Unit Rated Air Flow Rate 1 {m3/s}
  773.3,                                  !- Speed Rated Supply Air Fan Power Per Volume Flow Rate 2017 1 {W/(m3/s)}
  934.4,                                  !- Speed Rated Supply Air Fan Power Per Volume Flow Rate 2023 1 {W/(m3/s)}
  Mitsubishi Hyper Heating VRF Outdoor Unit HCAPFT curve, !- Speed Heating Capacity Function of Temperature Curve Name 1
  Mitsubishi Hyper Heating VRF Outdoor Unit HCAPFFF curve, !- Speed Total  Heating Capacity Function of Air Flow Fraction Curve Name 1
  Mitsubishi Hyper Heating VRF Outdoor Unit HEIRFT curve, !- Speed Energy Input Ratio Function of Temperature Curve Name 1
  Mitsubishi Hyper Heating VRF Outdoor Unit HEIRFFF curve; !- Speed Energy Input Ratio Function of Air Flow Fraction Curve Name 1

Table:Lookup,
  Mitsubishi Hyper Heating VRF Outdoor Unit HPLFFPLR curve, !- Name
  Mitsubishi Hyper Heating VRF Outdoor Unit HPLFFPLR curve Independent Variable List, !- Independent Variable List Name
  None,                                   !- Normalization Method
  1,                                      !- Normalization Divisor
  ,                                       !- Minimum Output {BasedOnField A4}
  ,                                       !- Maximum Output {BasedOnField A4}
  Dimensionless,                          !- Output Unit Type
  ,                                       !- External File Name
  ,                                       !- External File Column Number
  ,                                       !- External File Starting Row Number
  0,                                      !- Output Value 1 {BasedOnField A4}
  0,                                      !- Output Value 2 {BasedOnField A4}
  0,                                      !- Output Value 3 {BasedOnField A4}
  0,                                      !- Output Value 4 {BasedOnField A4}
  0,                                      !- Output Value 5 {BasedOnField A4}
  0,                                      !- Output Value 6 {BasedOnField A4}
  0,                                      !- Output Value 7 {BasedOnField A4}
  0,                                      !- Output Value 8 {BasedOnField A4}
  0;                                      !- Output Value 9 {BasedOnField A4}

Table:IndependentVariableList,
  Mitsubishi Hyper Heating VRF Outdoor Unit HPLFFPLR curve Independent Variable List, !- Name
  Mitsubishi Hyper Heating VRF Outdoor Unit HPLFFPLR curve_ind_1; !- Independent Variable Name 1

Table:IndependentVariable,
  Mitsubishi Hyper Heating VRF Outdoor Unit HPLFFPLR curve_ind_1, !- Name
  Linear,                                 !- Interpolation Method
  Constant,                               !- Extrapolation Method
  0,                                      !- Minimum Value {BasedOnField A4}
  1,                                      !- Maximum Value {BasedOnField A4}
  ,                                       !- Normalization Reference Value {BasedOnField A4}
  Dimensionless,                          !- Unit Type
  ,                                       !- External File Name
  ,                                       !- External File Column Number
  ,                                       !- External File Starting Row Number
  0.1,                                    !- Value 1
  0.2,                                    !- Value 2
  0.3,                                    !- Value 3
  0.4,                                    !- Value 4
  0.5,                                    !- Value 5
  0.555,                                  !- Value 6
  0.694,                                  !- Value 7
  0.833,                                  !- Value 8
  1;                                      !- Value 9

Table:Lookup,
  Mitsubishi Hyper Heating VRF Outdoor Unit Defrost HEIRFT curve, !- Name
  Mitsubishi Hyper Heating VRF Outdoor Unit Defrost HEIRFT curve Independent Variable List, !- Independent Variable List Name
  None,                                   !- Normalization Method
  1,                                      !- Normalization Divisor
  ,                                       !- Minimum Output {BasedOnField A4}
  ,                                       !- Maximum Output {BasedOnField A4}
  Dimensionless,                          !- Output Unit Type
  ,                                       !- External File Name
  ,                                       !- External File Column Number
  ,                                       !- External File Starting Row Number
  1,                                      !- Output Value 1 {BasedOnField A4}
  1,                                      !- Output Value 2 {BasedOnField A4}
  1,                                      !- Output Value 3 {BasedOnField A4}
  1,                                      !- Output Value 4 {BasedOnField A4}
  1,                                      !- Output Value 5 {BasedOnField A4}
  1,                                      !- Output Value 6 {BasedOnField A4}
  1,                                      !- Output Value 7 {BasedOnField A4}
  1,                                      !- Output Value 8 {BasedOnField A4}
  1,                                      !- Output Value 9 {BasedOnField A4}
  1,                                      !- Output Value 10 {BasedOnField A4}
  1,                                      !- Output Value 11 {BasedOnField A4}
  1,                                      !- Output Value 12 {BasedOnField A4}
  1,                                      !- Output Value 13 {BasedOnField A4}
  1,                                      !- Output Value 14 {BasedOnField A4}
  1,                                      !- Output Value 15 {BasedOnField A4}
  1,                                      !- Output Value 16 {BasedOnField A4}
  1,                                      !- Output Value 17 {BasedOnField A4}
  1,                                      !- Output Value 18 {BasedOnField A4}
  1,                                      !- Output Value 19 {BasedOnField A4}
  1,                                      !- Output Value 20 {BasedOnField A4}
  1,                                      !- Output Value 21 {BasedOnField A4}
  1;                                      !- Output Value 22 {BasedOnField A4}

Table:IndependentVariableList,
  Mitsubishi Hyper Heating VRF Outdoor Unit Defrost HEIRFT curve Independent Variable List, !- Name
  Mitsubishi Hyper Heating VRF Outdoor Unit Defrost HEIRFT curve_ind_1, !- Independent Variable Name 1
  Mitsubishi Hyper Heating VRF Outdoor Unit Defrost HEIRFT curve_ind_2; !- Independent Variable Name 2

Table:IndependentVariable,
  Mitsubishi Hyper Heating VRF Outdoor Unit Defrost HEIRFT curve_ind_1, !- Name
  Linear,                                 !- Interpolation Method
  Constant,                               !- Extrapolation Method
  15,                                     !- Minimum Value {BasedOnField A4}
  27.2,                                   !- Maximum Value {BasedOnField A4}
  ,                                       !- Normalization Reference Value {BasedOnField A4}
  Temperature,                            !- Unit Type
  ,                                       !- External File Name
  ,                                       !- External File Column Number
  ,                                       !- External File Starting Row Number
  15,                                     !- Value 1
  27.2;                                   !- Value 2

Table:IndependentVariable,
  Mitsubishi Hyper Heating VRF Outdoor Unit Defrost HEIRFT curve_ind_2, !- Name
  Linear,                                 !- Interpolation Method
  Constant,                               !- Extrapolation Method
  -25,                                    !- Minimum Value {BasedOnField A4}
  6,                                      !- Maximum Value {BasedOnField A4}
  ,                                       !- Normalization Reference Value {BasedOnField A4}
  Temperature,                            !- Unit Type
  ,                                       !- External File Name
  ,                                       !- External File Column Number
  ,                                       !- External File Starting Row Number
  -25,                                    !- Value 1
  -10,                                    !- Value 2
  -8,                                     !- Value 3
  -6,                                     !- Value 4
  -4,                                     !- Value 5
  -2,                                     !- Value 6
  0,                                      !- Value 7
  1,                                      !- Value 8
  2,                                      !- Value 9
  4,                                      !- Value 10
  6;                                      !- Value 11

Curve:Biquadratic,
  Mitsubishi Hyper Heating VRF Outdoor Unit HCAPFT curve, !- Name
  1.042427028,                            !- Coefficient1 Constant
  0.032023437,                            !- Coefficient2 x
  -0.00158028,                            !- Coefficient3 x**2
  0.025578062,                            !- Coefficient4 y
  -0.000168303,                           !- Coefficient5 y**2
  -0.001037712,                           !- Coefficient6 x*y
  15,                                     !- Minimum Value of x {BasedOnField A2}
  27.2,                                   !- Maximum Value of x {BasedOnField A2}
  -25,                                    !- Minimum Value of y {BasedOnField A3}
  15;                                     !- Maximum Value of y {BasedOnField A3}

Curve:Quadratic,
  Mitsubishi Hyper Heating VRF Outdoor Unit HCAPFFF curve, !- Name
  0.8,                                    !- Coefficient1 Constant
  0.2,                                    !- Coefficient2 x
  0,                                      !- Coefficient3 x**2
  0.5,                                    !- Minimum Value of x {BasedOnField A2}
  1.5;                                    !- Maximum Value of x {BasedOnField A2}

Curve:Biquadratic,
  Mitsubishi Hyper Heating VRF Outdoor Unit HEIRFT curve, !- Name
  1.224599145,                            !- Coefficient1 Constant
  0.005362596,                            !- Coefficient2 x
  -0.000269902,                           !- Coefficient3 x**2
  -0.041582393,                           !- Coefficient4 y
  0.000500483,                            !- Coefficient5 y**2
  0.000352842,                            !- Coefficient6 x*y
  15,                                     !- Minimum Value of x {BasedOnField A2}
  27.2,                                   !- Maximum Value of x {BasedOnField A2}
  -25,                                    !- Minimum Value of y {BasedOnField A3}
  15;                                     !- Maximum Value of y {BasedOnField A3}

Curve:Quadratic,
  Mitsubishi Hyper Heating VRF Outdoor Unit HEIRFFF curve, !- Name
  1,                                      !- Coefficient1 Constant
  0,                                      !- Coefficient2 x
  0,                                      !- Coefficient3 x**2
  0,                                      !- Minimum Value of x {BasedOnField A2}
  1;                                      !- Maximum Value of x {BasedOnField A2}

SetpointManager:MixedAir,
  CoilHeatingDXVariableSpeed_CCASHP Outlet Air Node OS Default SPM, !- Name
  Temperature,                            !- Control Variable
  sys_1|doas|shr>erv|sc>ccashp|sh>ccashp|ssf>cv|zh>b-e|zc>ptac|srf>none| Supply Outlet Node, !- Reference Setpoint Node Name
  CoilHeatingElectric Outlet Air Node,    !- Fan Inlet Node Name
  sys_1|doas|shr>erv|sc>ccashp|sh>ccashp|ssf>cv|zh>b-e|zc>ptac|srf>none| Supply Outlet Node, !- Fan Outlet Node Name
  CoilHeatingDXVariableSpeed_CCASHP Outlet Air Node; !- Setpoint Node or NodeList Name

Coil:Heating:Electric,
  CoilHeatingElectric,                    !- Name
  Always On Discrete,                     !- Availability Schedule Name
  1,                                      !- Efficiency
  Autosize,                               !- Nominal Capacity {W}
  CoilHeatingDXVariableSpeed_CCASHP Outlet Air Node, !- Air Inlet Node Name
  CoilHeatingElectric Outlet Air Node,    !- Air Outlet Node Name
  CoilHeatingElectric Outlet Air Node;    !- Temperature Setpoint Node Name

SetpointManager:MixedAir,
  CoilHeatingElectric Outlet Air Node OS Default SPM, !- Name
  Temperature,                            !- Control Variable
  sys_1|doas|shr>erv|sc>ccashp|sh>ccashp|ssf>cv|zh>b-e|zc>ptac|srf>none| Supply Outlet Node, !- Reference Setpoint Node Name
  CoilHeatingElectric Outlet Air Node,    !- Fan Inlet Node Name
  sys_1|doas|shr>erv|sc>ccashp|sh>ccashp|ssf>cv|zh>b-e|zc>ptac|srf>none| Supply Outlet Node, !- Fan Outlet Node Name
  CoilHeatingElectric Outlet Air Node;    !- Setpoint Node or NodeList Name

Fan:ConstantVolume,
  Supply Fan,                             !- Name
  sys_1|doas|shr>none|sc>ccashp|sh>ccashp|ssf>cv|zh>b-e|zc>ptac|srf>none| Occ Sch, !- Availability Schedule Name
  0.39975,                                !- Fan Total Efficiency
  640,                                    !- Pressure Rise {Pa}
  AutoSize,                               !- Maximum Flow Rate {m3/s}
  0.615,                                  !- Motor Efficiency
  1,                                      !- Motor In Airstream Fraction
  CoilHeatingElectric Outlet Air Node,    !- Air Inlet Node Name
  sys_1|doas|shr>erv|sc>ccashp|sh>ccashp|ssf>cv|zh>b-e|zc>ptac|srf>none| Supply Outlet Node, !- Air Outlet Node Name
  ;                                       !- End-Use Subcategory

SetpointManager:Scheduled,
  Setpoint Manager Scheduled 1,           !- Name
  Temperature,                            !- Control Variable
  Schedule Ruleset 3,                     !- Schedule Name
  sys_1|doas|shr>erv|sc>ccashp|sh>ccashp|ssf>cv|zh>b-e|zc>ptac|srf>none| Supply Outlet Node; !- Setpoint Node or NodeList Name

AirLoopHVAC:SupplyPath,
  sys_1|doas|shr>erv|sc>ccashp|sh>ccashp|ssf>cv|zh>b-e|zc>ptac|srf>none| sys_1|doas|shr>erv|sc>ccashp|sh>ccashp|ssf>cv|zh>b-e|zc>ptac|srf>none| Demand Inlet Node Supply Path, !- Name
  sys_1|doas|shr>erv|sc>ccashp|sh>ccashp|ssf>cv|zh>b-e|zc>ptac|srf>none| Demand Inlet Node, !- Supply Air Path Inlet Node Name
  AirLoopHVAC:ZoneSplitter,               !- Component Object Type 1
  Air Loop HVAC Zone Splitter 1;          !- Component Name 1

AirLoopHVAC:ZoneSplitter,
  Air Loop HVAC Zone Splitter 1,          !- Name
  sys_1|doas|shr>erv|sc>ccashp|sh>ccashp|ssf>cv|zh>b-e|zc>ptac|srf>none| Demand Inlet Node, !- Inlet Node Name
  Air Terminal Single Duct Constant Volume No Reheat 1 Inlet Air Node, !- Outlet Node Name 1
  Air Terminal Single Duct Constant Volume No Reheat 2 Inlet Air Node, !- Outlet Node Name 2
  Air Terminal Single Duct Constant Volume No Reheat 3 Inlet Air Node, !- Outlet Node Name 3
  Air Terminal Single Duct Constant Volume No Reheat 4 Inlet Air Node, !- Outlet Node Name 4
  Air Terminal Single Duct Constant Volume No Reheat 5 Inlet Air Node, !- Outlet Node Name 5
  Air Terminal Single Duct Constant Volume No Reheat 6 Inlet Air Node, !- Outlet Node Name 6
  Air Terminal Single Duct Constant Volume No Reheat 7 Inlet Air Node, !- Outlet Node Name 7
  Air Terminal Single Duct Constant Volume No Reheat 8 Inlet Air Node, !- Outlet Node Name 8
  Air Terminal Single Duct Constant Volume No Reheat 9 Inlet Air Node, !- Outlet Node Name 9
  Air Terminal Single Duct Constant Volume No Reheat 10 Inlet Air Node, !- Outlet Node Name 10
  Air Terminal Single Duct Constant Volume No Reheat 11 Inlet Air Node, !- Outlet Node Name 11
  Air Terminal Single Duct Constant Volume No Reheat 12 Inlet Air Node, !- Outlet Node Name 12
  Air Terminal Single Duct Constant Volume No Reheat 13 Inlet Air Node, !- Outlet Node Name 13
  Air Terminal Single Duct Constant Volume No Reheat 14 Inlet Air Node, !- Outlet Node Name 14
  Air Terminal Single Duct Constant Volume No Reheat 15 Inlet Air Node, !- Outlet Node Name 15
  Air Terminal Single Duct Constant Volume No Reheat 16 Inlet Air Node, !- Outlet Node Name 16
  Air Terminal Single Duct Constant Volume No Reheat 17 Inlet Air Node, !- Outlet Node Name 17
  Air Terminal Single Duct Constant Volume No Reheat 18 Inlet Air Node; !- Outlet Node Name 18

AirLoopHVAC:ReturnPath,
  sys_1|doas|shr>erv|sc>ccashp|sh>ccashp|ssf>cv|zh>b-e|zc>ptac|srf>none| Return Path, !- Name
  sys_1|doas|shr>erv|sc>ccashp|sh>ccashp|ssf>cv|zh>b-e|zc>ptac|srf>none| Demand Outlet Node, !- Return Air Path Outlet Node Name
  AirLoopHVAC:ZoneMixer,                  !- Component Object Type 1
  Air Loop HVAC Zone Mixer 1;             !- Component Name 1

AirLoopHVAC:ZoneMixer,
  Air Loop HVAC Zone Mixer 1,             !- Name
  sys_1|doas|shr>erv|sc>ccashp|sh>ccashp|ssf>cv|zh>b-e|zc>ptac|srf>none| Demand Outlet Node, !- Outlet Node Name
  DU_BT=Space Function_ST=Dwelling units general_FL=Building Story 1_SCHG Return Air Node, !- Inlet Node Name 1
  DU_BT=Space Function_ST=Dwelling units general_FL=Building Story 1_SCHG 10 Return Air Node, !- Inlet Node Name 2
  DU_BT=Space Function_ST=Dwelling units general_FL=Building Story 1_SCHG 11 Return Air Node, !- Inlet Node Name 3
  DU_BT=Space Function_ST=Dwelling units general_FL=Building Story 1_SCHG 7 Return Air Node, !- Inlet Node Name 4
  DU_BT=Space Function_ST=Dwelling units general_FL=Building Story 1_SCHG 8 Return Air Node, !- Inlet Node Name 5
  DU_BT=Space Function_ST=Dwelling units general_FL=Building Story 1_SCHG 9 Return Air Node, !- Inlet Node Name 6
  DU_BT=Space Function_ST=Dwelling units general_FL=Building Story 2_SCHG Return Air Node, !- Inlet Node Name 7
  DU_BT=Space Function_ST=Dwelling units general_FL=Building Story 2_SCHG 10 Return Air Node, !- Inlet Node Name 8
  DU_BT=Space Function_ST=Dwelling units general_FL=Building Story 2_SCHG 11 Return Air Node, !- Inlet Node Name 9
  DU_BT=Space Function_ST=Dwelling units general_FL=Building Story 2_SCHG 12 Return Air Node, !- Inlet Node Name 10
  DU_BT=Space Function_ST=Dwelling units general_FL=Building Story 2_SCHG 8 Return Air Node, !- Inlet Node Name 11
  DU_BT=Space Function_ST=Dwelling units general_FL=Building Story 2_SCHG 9 Return Air Node, !- Inlet Node Name 12
  DU_BT=Space Function_ST=Dwelling units general_FL=Building Story 3_SCHG Return Air Node, !- Inlet Node Name 13
  DU_BT=Space Function_ST=Dwelling units general_FL=Building Story 3_SCHG 10 Return Air Node, !- Inlet Node Name 14
  DU_BT=Space Function_ST=Dwelling units general_FL=Building Story 3_SCHG 11 Return Air Node, !- Inlet Node Name 15
  DU_BT=Space Function_ST=Dwelling units general_FL=Building Story 3_SCHG 12 Return Air Node, !- Inlet Node Name 16
  DU_BT=Space Function_ST=Dwelling units general_FL=Building Story 3_SCHG 8 Return Air Node, !- Inlet Node Name 17
  DU_BT=Space Function_ST=Dwelling units general_FL=Building Story 3_SCHG 9 Return Air Node; !- Inlet Node Name 18

AirLoopHVAC,
  sys_4|mixed|shr>erv|sc>ccashp|sh>ccashp|ssf>cv|zh>b-e|zc>none|srf>none|, !- Name
  ,                                       !- Controller List Name
  Air Loop HVAC 1 AvailabilityManagerAssignmentList 1, !- Availability Manager List Name
  AutoSize,                               !- Design Supply Air Flow Rate {m3/s}
  sys_4|mixed|shr>erv|sc>ccashp|sh>ccashp|ssf>cv|zh>b-e|zc>none|srf>none| Supply Branches, !- Branch List Name
  ,                                       !- Connector List Name
  sys_4|mixed|shr>erv|sc>ccashp|sh>ccashp|ssf>cv|zh>b-e|zc>none|srf>none| Supply Inlet Node, !- Supply Side Inlet Node Name
  sys_4|mixed|shr>erv|sc>ccashp|sh>ccashp|ssf>cv|zh>b-e|zc>none|srf>none| Demand Outlet Node, !- Demand Side Outlet Node Name
  sys_4|mixed|shr>erv|sc>ccashp|sh>ccashp|ssf>cv|zh>b-e|zc>none|srf>none| Demand Inlet Nodes, !- Demand Side Inlet Node Names
  sys_4|mixed|shr>erv|sc>ccashp|sh>ccashp|ssf>cv|zh>b-e|zc>none|srf>none| Supply Outlet Nodes, !- Supply Side Outlet Node Names
  1;                                      !- Design Return Air Flow Fraction of Supply Air Flow

NodeList,
  sys_4|mixed|shr>erv|sc>ccashp|sh>ccashp|ssf>cv|zh>b-e|zc>none|srf>none| Supply Outlet Nodes, !- Name
  sys_4|mixed|shr>erv|sc>ccashp|sh>ccashp|ssf>cv|zh>b-e|zc>none|srf>none| Supply Outlet Node; !- Node Name 1

NodeList,
  sys_4|mixed|shr>erv|sc>ccashp|sh>ccashp|ssf>cv|zh>b-e|zc>none|srf>none| Demand Inlet Nodes, !- Name
  sys_4|mixed|shr>erv|sc>ccashp|sh>ccashp|ssf>cv|zh>b-e|zc>none|srf>none| Demand Inlet Node; !- Node Name 1

Sizing:System,
  sys_4|mixed|shr>erv|sc>ccashp|sh>ccashp|ssf>cv|zh>b-e|zc>none|srf>none|, !- AirLoop Name
  Sensible,                               !- Type of Load to Size On
  Autosize,                               !- Design Outdoor Air Flow Rate {m3/s}
  1,                                      !- Central Heating Maximum System Air Flow Ratio
  7,                                      !- Preheat Design Temperature {C}
  0.008,                                  !- Preheat Design Humidity Ratio {kgWater/kgDryAir}
  13,                                     !- Precool Design Temperature {C}
  0.008,                                  !- Precool Design Humidity Ratio {kgWater/kgDryAir}
  13,                                     !- Central Cooling Design Supply Air Temperature {C}
  43,                                     !- Central Heating Design Supply Air Temperature {C}
  NonCoincident,                          !- Type of Zone Sum to Use
  No,                                     !- 100% Outdoor Air in Cooling
  No,                                     !- 100% Outdoor Air in Heating
  0.0085,                                 !- Central Cooling Design Supply Air Humidity Ratio {kgWater/kgDryAir}
  0.008,                                  !- Central Heating Design Supply Air Humidity Ratio {kgWater/kgDryAir}
  DesignDay,                              !- Cooling Supply Air Flow Rate Method
  0,                                      !- Cooling Supply Air Flow Rate {m3/s}
  0.0099676501,                           !- Cooling Supply Air Flow Rate Per Floor Area {m3/s-m2}
  1,                                      !- Cooling Fraction of Autosized Cooling Supply Air Flow Rate
  3.9475456e-05,                          !- Cooling Supply Air Flow Rate Per Unit Cooling Capacity {m3/s-W}
  DesignDay,                              !- Heating Supply Air Flow Rate Method
  0,                                      !- Heating Supply Air Flow Rate {m3/s}
  0.0099676501,                           !- Heating Supply Air Flow Rate Per Floor Area {m3/s-m2}
  1,                                      !- Heating Fraction of Autosized Heating Supply Air Flow Rate
  1,                                      !- Heating Fraction of Autosized Cooling Supply Air Flow Rate
  3.1588213e-05,                          !- Heating Supply Air Flow Rate Per Unit Heating Capacity {m3/s-W}
  ZoneSum,                                !- System Outdoor Air Method
  1,                                      !- Zone Maximum Outdoor Air Fraction {dimensionless}
  CoolingDesignCapacity,                  !- Cooling Design Capacity Method
  Autosize,                               !- Cooling Design Capacity {W}
  234.7,                                  !- Cooling Design Capacity Per Floor Area {W/m2}
  1,                                      !- Fraction of Autosized Cooling Design Capacity
  HeatingDesignCapacity,                  !- Heating Design Capacity Method
  Autosize,                               !- Heating Design Capacity {W}
  157,                                    !- Heating Design Capacity Per Floor Area {W/m2}
  1,                                      !- Fraction of Autosized Heating Design Capacity
  OnOff,                                  !- Central Cooling Capacity Control Method
  Autosize;                               !- Occupant Diversity

AvailabilityManagerAssignmentList,
  Air Loop HVAC 1 AvailabilityManagerAssignmentList 1, !- Name
  AvailabilityManager:NightCycle,         !- Availability Manager Object Type 1
  Availability Manager Night Cycle 27;    !- Availability Manager Name 1

AvailabilityManager:NightCycle,
  Availability Manager Night Cycle 27,    !- Name
  Always On Discrete,                     !- Applicability Schedule Name
  sys_4|mixed|shr>none|sc>ccashp|sh>ccashp|ssf>cv|zh>b-e|zc>none|srf>none| Occ Sch, !- Fan Schedule Name
  CycleOnAny,                             !- Control Type
  1,                                      !- Thermostat Tolerance {deltaC}
  FixedRunTime,                           !- Cycling Run Time Control Type
  3600;                                   !- Cycling Run Time {s}

BranchList,
  sys_4|mixed|shr>erv|sc>ccashp|sh>ccashp|ssf>cv|zh>b-e|zc>none|srf>none| Supply Branches, !- Name
  sys_4|mixed|shr>erv|sc>ccashp|sh>ccashp|ssf>cv|zh>b-e|zc>none|srf>none| Main Branch; !- Branch Name 1

Branch,
  sys_4|mixed|shr>erv|sc>ccashp|sh>ccashp|ssf>cv|zh>b-e|zc>none|srf>none| Main Branch, !- Name
  ,                                       !- Pressure Drop Curve Name
  AirLoopHVAC:OutdoorAirSystem,           !- Component Object Type 1
  Air Loop HVAC Outdoor Air System 2,     !- Component Name 1
  sys_4|mixed|shr>erv|sc>ccashp|sh>ccashp|ssf>cv|zh>b-e|zc>none|srf>none| Supply Inlet Node, !- Component Inlet Node Name 1
  sys_4|mixed|shr>erv|sc>ccashp|sh>ccashp|ssf>cv|zh>b-e|zc>none|srf>none| Mixed Air Node, !- Component Outlet Node Name 1
  CoilSystem:Cooling:DX,                  !- Component Object Type 2
  CoilCoolingDXVariableSpeed_CCASHP 1 CoilSystem, !- Component Name 2
  sys_4|mixed|shr>erv|sc>ccashp|sh>ccashp|ssf>cv|zh>b-e|zc>none|srf>none| Mixed Air Node, !- Component Inlet Node Name 2
  CoilCoolingDXVariableSpeed_CCASHP 1 Outlet Air Node, !- Component Outlet Node Name 2
  CoilSystem:Heating:DX,                  !- Component Object Type 3
  CoilHeatingDXVariableSpeed_CCASHP 1 CoilSystem, !- Component Name 3
  CoilCoolingDXVariableSpeed_CCASHP 1 Outlet Air Node, !- Component Inlet Node Name 3
  CoilHeatingDXVariableSpeed_CCASHP 1 Outlet Air Node, !- Component Outlet Node Name 3
  Coil:Heating:Electric,                  !- Component Object Type 4
  CoilHeatingElectric 19,                 !- Component Name 4
  CoilHeatingDXVariableSpeed_CCASHP 1 Outlet Air Node, !- Component Inlet Node Name 4
  CoilHeatingElectric 19 Outlet Air Node, !- Component Outlet Node Name 4
  Fan:ConstantVolume,                     !- Component Object Type 5
  Supply Fan 1,                           !- Component Name 5
  CoilHeatingElectric 19 Outlet Air Node, !- Component Inlet Node Name 5
  sys_4|mixed|shr>erv|sc>ccashp|sh>ccashp|ssf>cv|zh>b-e|zc>none|srf>none| Supply Outlet Node; !- Component Outlet Node Name 5

AirLoopHVAC:OutdoorAirSystem,
  Air Loop HVAC Outdoor Air System 2,     !- Name
  Air Loop HVAC Outdoor Air System 2 Controller List, !- Controller List Name
  Air Loop HVAC Outdoor Air System 2 Equipment List; !- Outdoor Air Equipment List Name

AirLoopHVAC:ControllerList,
  Air Loop HVAC Outdoor Air System 2 Controller List, !- Name
  Controller:OutdoorAir,                  !- Controller Object Type 1
  Controller Outdoor Air 2;               !- Controller Name 1

Controller:OutdoorAir,
  Controller Outdoor Air 2,               !- Name
  sys_4|mixed|shr>none|sc>ccashp|sh>ccashp|ssf>cv|zh>b-e|zc>none|srf>none| ERV Secondary Inlet Air Node, !- Relief Air Outlet Node Name
  sys_4|mixed|shr>erv|sc>ccashp|sh>ccashp|ssf>cv|zh>b-e|zc>none|srf>none| Supply Inlet Node, !- Return Air Node Name
  sys_4|mixed|shr>erv|sc>ccashp|sh>ccashp|ssf>cv|zh>b-e|zc>none|srf>none| Mixed Air Node, !- Mixed Air Node Name
  sys_4|mixed|shr>erv|sc>ccashp|sh>ccashp|ssf>cv|zh>b-e|zc>none|srf>none| Outdoor Air Node, !- Actuator Node Name
  Autosize,                               !- Minimum Outdoor Air Flow Rate {m3/s}
  Autosize,                               !- Maximum Outdoor Air Flow Rate {m3/s}
  NoEconomizer,                           !- Economizer Control Type
  ModulateFlow,                           !- Economizer Control Action Type
  28,                                     !- Economizer Maximum Limit Dry-Bulb Temperature {C}
  64000,                                  !- Economizer Maximum Limit Enthalpy {J/kg}
  ,                                       !- Economizer Maximum Limit Dewpoint Temperature {C}
  ,                                       !- Electronic Enthalpy Limit Curve Name
  -100,                                   !- Economizer Minimum Limit Dry-Bulb Temperature {C}
  NoLockout,                              !- Lockout Type
  FixedMinimum,                           !- Minimum Limit Type
  sys_4|mixed|shr>none|sc>ccashp|sh>ccashp|ssf>cv|zh>b-e|zc>none|srf>none| Occ Sch, !- Minimum Outdoor Air Schedule Name
  ,                                       !- Minimum Fraction of Outdoor Air Schedule Name
  ,                                       !- Maximum Fraction of Outdoor Air Schedule Name
  Controller Mechanical Ventilation 2,    !- Mechanical Ventilation Controller Name
  ,                                       !- Time of Day Economizer Control Schedule Name
  No,                                     !- High Humidity Control
  ,                                       !- Humidistat Control Zone Name
  1,                                      !- High Humidity Outdoor Air Flow Ratio
  Yes,                                    !- Control High Indoor Humidity Based on Outdoor Humidity Ratio
  BypassWhenOAFlowGreaterThanMinimum,     !- Heat Recovery Bypass Control Type
  InterlockedWithMechanicalCooling;       !- Economizer Operation Staging

OutdoorAir:NodeList,
  sys_4|mixed|shr>erv|sc>ccashp|sh>ccashp|ssf>cv|zh>b-e|zc>none|srf>none| Outdoor Air Node; !- Node or NodeList Name 1

AirLoopHVAC:OutdoorAirSystem:EquipmentList,
  Air Loop HVAC Outdoor Air System 2 Equipment List, !- Name
  OutdoorAir:Mixer,                       !- Component Object Type 1
  Air Loop HVAC Outdoor Air System 2 Outdoor Air Mixer, !- Component Name 1
  HeatExchanger:AirToAir:SensibleAndLatent, !- Component Object Type 2
  sys_4|mixed|shr>none|sc>ccashp|sh>ccashp|ssf>cv|zh>b-e|zc>none|srf>none| ERV; !- Component Name 2

OutdoorAir:Mixer,
  Air Loop HVAC Outdoor Air System 2 Outdoor Air Mixer, !- Name
  sys_4|mixed|shr>erv|sc>ccashp|sh>ccashp|ssf>cv|zh>b-e|zc>none|srf>none| Mixed Air Node, !- Mixed Air Node Name
  sys_4|mixed|shr>none|sc>ccashp|sh>ccashp|ssf>cv|zh>b-e|zc>none|srf>none| ERV Primary Outlet Air Node, !- Outdoor Air Stream Node Name
  sys_4|mixed|shr>none|sc>ccashp|sh>ccashp|ssf>cv|zh>b-e|zc>none|srf>none| ERV Secondary Inlet Air Node, !- Relief Air Stream Node Name
  sys_4|mixed|shr>erv|sc>ccashp|sh>ccashp|ssf>cv|zh>b-e|zc>none|srf>none| Supply Inlet Node; !- Return Air Stream Node Name

HeatExchanger:AirToAir:SensibleAndLatent,
  sys_4|mixed|shr>none|sc>ccashp|sh>ccashp|ssf>cv|zh>b-e|zc>none|srf>none| ERV, !- Name
  Always On Discrete,                     !- Availability Schedule Name
  Autosize,                               !- Nominal Supply Air Flow Rate {m3/s}
  0.5,                                    !- Sensible Effectiveness at 100% Heating Air Flow {dimensionless}
  0.5,                                    !- Latent Effectiveness at 100% Heating Air Flow {dimensionless}
  0.5,                                    !- Sensible Effectiveness at 100% Cooling Air Flow {dimensionless}
  0.5,                                    !- Latent Effectiveness at 100% Cooling Air Flow {dimensionless}
  sys_4|mixed|shr>erv|sc>ccashp|sh>ccashp|ssf>cv|zh>b-e|zc>none|srf>none| Outdoor Air Node, !- Supply Air Inlet Node Name
  sys_4|mixed|shr>none|sc>ccashp|sh>ccashp|ssf>cv|zh>b-e|zc>none|srf>none| ERV Primary Outlet Air Node, !- Supply Air Outlet Node Name
  sys_4|mixed|shr>none|sc>ccashp|sh>ccashp|ssf>cv|zh>b-e|zc>none|srf>none| ERV Secondary Inlet Air Node, !- Exhaust Air Inlet Node Name
  sys_4|mixed|shr>erv|sc>ccashp|sh>ccashp|ssf>cv|zh>b-e|zc>none|srf>none| Relief Air Node, !- Exhaust Air Outlet Node Name
  88.2131783654565,                       !- Nominal Electric Power {W}
  Yes,                                    !- Supply Air Outlet Temperature Control
  Rotary,                                 !- Heat Exchanger Type
  ExhaustOnly,                            !- Frost Control Type
  -23.3,                                  !- Threshold Temperature {C}
  0.167,                                  !- Initial Defrost Time Fraction {dimensionless}
  1.44,                                   !- Rate of Defrost Time Fraction Increase {1/K}
  Yes,                                    !- Economizer Lockout
  sys_4|mixed|shr>none|sc>ccashp|sh>ccashp|ssf>cv|zh>b-e|zc>none|srf>none| ERV_SensHeatEff 1, !- Sensible Effectiveness of Heating Air Flow Curve Name
  sys_4|mixed|shr>none|sc>ccashp|sh>ccashp|ssf>cv|zh>b-e|zc>none|srf>none| ERV_LatHeatEff 1, !- Latent Effectiveness of Heating Air Flow Curve Name
  sys_4|mixed|shr>none|sc>ccashp|sh>ccashp|ssf>cv|zh>b-e|zc>none|srf>none| ERV_SensCoolEff 1, !- Sensible Effectiveness of Cooling Air Flow Curve Name
  sys_4|mixed|shr>none|sc>ccashp|sh>ccashp|ssf>cv|zh>b-e|zc>none|srf>none| ERV_LatCoolEff 1; !- Latent Effectiveness of Cooling Air Flow Curve Name

Table:Lookup,
  sys_4|mixed|shr>none|sc>ccashp|sh>ccashp|ssf>cv|zh>b-e|zc>none|srf>none| ERV_SensHeatEff 1, !- Name
  sys_4|mixed|shr>none|sc>ccashp|sh>ccashp|ssf>cv|zh>b-e|zc>none|srf>none| ERV_SensHeatEff 1 Independent Variable List, !- Independent Variable List Name
  DivisorOnly,                            !- Normalization Method
  0.5,                                    !- Normalization Divisor
  0,                                      !- Minimum Output {BasedOnField A4}
  10,                                     !- Maximum Output {BasedOnField A4}
  Dimensionless,                          !- Output Unit Type
  ,                                       !- External File Name
  ,                                       !- External File Column Number
  ,                                       !- External File Starting Row Number
  0.5,                                    !- Output Value 1 {BasedOnField A4}
  0.5;                                    !- Output Value 2 {BasedOnField A4}

Table:IndependentVariableList,
  sys_4|mixed|shr>none|sc>ccashp|sh>ccashp|ssf>cv|zh>b-e|zc>none|srf>none| ERV_SensHeatEff 1 Independent Variable List, !- Name
  sys_4|mixed|shr>none|sc>ccashp|sh>ccashp|ssf>cv|zh>b-e|zc>none|srf>none| ERV_SensibleHeating_IndependentVariable; !- Independent Variable Name 1

Table:IndependentVariable,
  sys_4|mixed|shr>none|sc>ccashp|sh>ccashp|ssf>cv|zh>b-e|zc>none|srf>none| ERV_SensibleHeating_IndependentVariable, !- Name
  Linear,                                 !- Interpolation Method
  Linear,                                 !- Extrapolation Method
  0,                                      !- Minimum Value {BasedOnField A4}
  10,                                     !- Maximum Value {BasedOnField A4}
  ,                                       !- Normalization Reference Value {BasedOnField A4}
  Dimensionless,                          !- Unit Type
  ,                                       !- External File Name
  ,                                       !- External File Column Number
  ,                                       !- External File Starting Row Number
  0.75,                                   !- Value 1
  1;                                      !- Value 2

Table:Lookup,
  sys_4|mixed|shr>none|sc>ccashp|sh>ccashp|ssf>cv|zh>b-e|zc>none|srf>none| ERV_LatHeatEff 1, !- Name
  sys_4|mixed|shr>none|sc>ccashp|sh>ccashp|ssf>cv|zh>b-e|zc>none|srf>none| ERV_LatHeatEff 1 Independent Variable List, !- Independent Variable List Name
  DivisorOnly,                            !- Normalization Method
  0.5,                                    !- Normalization Divisor
  0,                                      !- Minimum Output {BasedOnField A4}
  10,                                     !- Maximum Output {BasedOnField A4}
  Dimensionless,                          !- Output Unit Type
  ,                                       !- External File Name
  ,                                       !- External File Column Number
  ,                                       !- External File Starting Row Number
  0.5,                                    !- Output Value 1 {BasedOnField A4}
  0.5;                                    !- Output Value 2 {BasedOnField A4}

Table:IndependentVariableList,
  sys_4|mixed|shr>none|sc>ccashp|sh>ccashp|ssf>cv|zh>b-e|zc>none|srf>none| ERV_LatHeatEff 1 Independent Variable List, !- Name
  sys_4|mixed|shr>none|sc>ccashp|sh>ccashp|ssf>cv|zh>b-e|zc>none|srf>none| ERV_LatentHeating_IndependentVariable; !- Independent Variable Name 1

Table:IndependentVariable,
  sys_4|mixed|shr>none|sc>ccashp|sh>ccashp|ssf>cv|zh>b-e|zc>none|srf>none| ERV_LatentHeating_IndependentVariable, !- Name
  Linear,                                 !- Interpolation Method
  Linear,                                 !- Extrapolation Method
  0,                                      !- Minimum Value {BasedOnField A4}
  10,                                     !- Maximum Value {BasedOnField A4}
  ,                                       !- Normalization Reference Value {BasedOnField A4}
  Dimensionless,                          !- Unit Type
  ,                                       !- External File Name
  ,                                       !- External File Column Number
  ,                                       !- External File Starting Row Number
  0.75,                                   !- Value 1
  1;                                      !- Value 2

Table:Lookup,
  sys_4|mixed|shr>none|sc>ccashp|sh>ccashp|ssf>cv|zh>b-e|zc>none|srf>none| ERV_SensCoolEff 1, !- Name
  sys_4|mixed|shr>none|sc>ccashp|sh>ccashp|ssf>cv|zh>b-e|zc>none|srf>none| ERV_SensCoolEff 1 Independent Variable List, !- Independent Variable List Name
  DivisorOnly,                            !- Normalization Method
  0.5,                                    !- Normalization Divisor
  0,                                      !- Minimum Output {BasedOnField A4}
  10,                                     !- Maximum Output {BasedOnField A4}
  Dimensionless,                          !- Output Unit Type
  ,                                       !- External File Name
  ,                                       !- External File Column Number
  ,                                       !- External File Starting Row Number
  0.5,                                    !- Output Value 1 {BasedOnField A4}
  0.5;                                    !- Output Value 2 {BasedOnField A4}

Table:IndependentVariableList,
  sys_4|mixed|shr>none|sc>ccashp|sh>ccashp|ssf>cv|zh>b-e|zc>none|srf>none| ERV_SensCoolEff 1 Independent Variable List, !- Name
  sys_4|mixed|shr>none|sc>ccashp|sh>ccashp|ssf>cv|zh>b-e|zc>none|srf>none| ERV_SensibleCooling_IndependentVariable; !- Independent Variable Name 1

Table:IndependentVariable,
  sys_4|mixed|shr>none|sc>ccashp|sh>ccashp|ssf>cv|zh>b-e|zc>none|srf>none| ERV_SensibleCooling_IndependentVariable, !- Name
  Linear,                                 !- Interpolation Method
  Linear,                                 !- Extrapolation Method
  0,                                      !- Minimum Value {BasedOnField A4}
  10,                                     !- Maximum Value {BasedOnField A4}
  ,                                       !- Normalization Reference Value {BasedOnField A4}
  Dimensionless,                          !- Unit Type
  ,                                       !- External File Name
  ,                                       !- External File Column Number
  ,                                       !- External File Starting Row Number
  0.75,                                   !- Value 1
  1;                                      !- Value 2

Table:Lookup,
  sys_4|mixed|shr>none|sc>ccashp|sh>ccashp|ssf>cv|zh>b-e|zc>none|srf>none| ERV_LatCoolEff 1, !- Name
  sys_4|mixed|shr>none|sc>ccashp|sh>ccashp|ssf>cv|zh>b-e|zc>none|srf>none| ERV_LatCoolEff 1 Independent Variable List, !- Independent Variable List Name
  DivisorOnly,                            !- Normalization Method
  0.5,                                    !- Normalization Divisor
  0,                                      !- Minimum Output {BasedOnField A4}
  10,                                     !- Maximum Output {BasedOnField A4}
  Dimensionless,                          !- Output Unit Type
  ,                                       !- External File Name
  ,                                       !- External File Column Number
  ,                                       !- External File Starting Row Number
  0.5,                                    !- Output Value 1 {BasedOnField A4}
  0.5;                                    !- Output Value 2 {BasedOnField A4}

Table:IndependentVariableList,
  sys_4|mixed|shr>none|sc>ccashp|sh>ccashp|ssf>cv|zh>b-e|zc>none|srf>none| ERV_LatCoolEff 1 Independent Variable List, !- Name
  sys_4|mixed|shr>none|sc>ccashp|sh>ccashp|ssf>cv|zh>b-e|zc>none|srf>none| ERV_LatentCooling_IndependentVariable; !- Independent Variable Name 1

Table:IndependentVariable,
  sys_4|mixed|shr>none|sc>ccashp|sh>ccashp|ssf>cv|zh>b-e|zc>none|srf>none| ERV_LatentCooling_IndependentVariable, !- Name
  Linear,                                 !- Interpolation Method
  Linear,                                 !- Extrapolation Method
  0,                                      !- Minimum Value {BasedOnField A4}
  10,                                     !- Maximum Value {BasedOnField A4}
  ,                                       !- Normalization Reference Value {BasedOnField A4}
  Dimensionless,                          !- Unit Type
  ,                                       !- External File Name
  ,                                       !- External File Column Number
  ,                                       !- External File Starting Row Number
  0.75,                                   !- Value 1
  1;                                      !- Value 2

SetpointManager:OutdoorAirPretreat,
  Setpoint Manager Outdoor Air Pretreat 2, !- Name
  Temperature,                            !- Control Variable
  -99,                                    !- Minimum Setpoint Temperature {C}
  99,                                     !- Maximum Setpoint Temperature {C}
  1e-05,                                  !- Minimum Setpoint Humidity Ratio {kgWater/kgDryAir}
  1,                                      !- Maximum Setpoint Humidity Ratio {kgWater/kgDryAir}
  sys_4|mixed|shr>erv|sc>ccashp|sh>ccashp|ssf>cv|zh>b-e|zc>none|srf>none| Mixed Air Node, !- Reference Setpoint Node Name
  sys_4|mixed|shr>erv|sc>ccashp|sh>ccashp|ssf>cv|zh>b-e|zc>none|srf>none| Mixed Air Node, !- Mixed Air Stream Node Name
  sys_4|mixed|shr>erv|sc>ccashp|sh>ccashp|ssf>cv|zh>b-e|zc>none|srf>none| Outdoor Air Node, !- Outdoor Air Stream Node Name
  sys_4|mixed|shr>erv|sc>ccashp|sh>ccashp|ssf>cv|zh>b-e|zc>none|srf>none| Supply Inlet Node, !- Return Air Stream Node Name
  sys_4|mixed|shr>none|sc>ccashp|sh>ccashp|ssf>cv|zh>b-e|zc>none|srf>none| ERV Primary Outlet Air Node; !- Setpoint Node or NodeList Name

SetpointManager:MixedAir,
  sys_4|mixed|shr>erv|sc>ccashp|sh>ccashp|ssf>cv|zh>b-e|zc>none|srf>none| Mixed Air Node OS Default SPM, !- Name
  Temperature,                            !- Control Variable
  sys_4|mixed|shr>erv|sc>ccashp|sh>ccashp|ssf>cv|zh>b-e|zc>none|srf>none| Supply Outlet Node, !- Reference Setpoint Node Name
  CoilHeatingElectric 19 Outlet Air Node, !- Fan Inlet Node Name
  sys_4|mixed|shr>erv|sc>ccashp|sh>ccashp|ssf>cv|zh>b-e|zc>none|srf>none| Supply Outlet Node, !- Fan Outlet Node Name
  sys_4|mixed|shr>erv|sc>ccashp|sh>ccashp|ssf>cv|zh>b-e|zc>none|srf>none| Mixed Air Node; !- Setpoint Node or NodeList Name

CoilSystem:Cooling:DX,
  CoilCoolingDXVariableSpeed_CCASHP 1 CoilSystem, !- Name
  ,                                       !- Availability Schedule Name
  sys_4|mixed|shr>erv|sc>ccashp|sh>ccashp|ssf>cv|zh>b-e|zc>none|srf>none| Mixed Air Node, !- DX Cooling Coil System Inlet Node Name
  CoilCoolingDXVariableSpeed_CCASHP 1 Outlet Air Node, !- DX Cooling Coil System Outlet Node Name
  CoilCoolingDXVariableSpeed_CCASHP 1 Outlet Air Node, !- DX Cooling Coil System Sensor Node Name
  Coil:Cooling:DX:VariableSpeed,          !- Cooling Coil Object Type
  CoilCoolingDXVariableSpeed_CCASHP 1;    !- Cooling Coil Name

Coil:Cooling:DX:VariableSpeed,
  CoilCoolingDXVariableSpeed_CCASHP 1,    !- Name
  sys_4|mixed|shr>erv|sc>ccashp|sh>ccashp|ssf>cv|zh>b-e|zc>none|srf>none| Mixed Air Node, !- Indoor Air Inlet Node Name
  CoilCoolingDXVariableSpeed_CCASHP 1 Outlet Air Node, !- Indoor Air Outlet Node Name
  1,                                      !- Number of Speeds {dimensionless}
  1,                                      !- Nominal Speed Level {dimensionless}
  11054.4873046875,                       !- Gross Rated Total Cooling Capacity At Selected Nominal Speed Level {W}
  AutoSize,                               !- Rated Air Flow Rate At Selected Nominal Speed Level {m3/s}
  0,                                      !- Nominal Time for Condensate to Begin Leaving the Coil {s}
  0,                                      !- Initial Moisture Evaporation Rate Divided by Steady-State AC Latent Capacity {dimensionless}
  2.5,                                    !- Maximum Cycling Rate {cycles/hr}
  60,                                     !- Latent Capacity Time Constant {s}
  60,                                     !- Fan Delay Time {s}
  Mitsubishi Hyper Heating VRF Outdoor Unit CPLFFPLR curve, !- Energy Part Load Fraction Curve Name
  ,                                       !- Condenser Air Inlet Node Name
  AirCooled,                              !- Condenser Type
  0,                                      !- Evaporative Condenser Pump Rated Power Consumption {W}
  1e-06,                                  !- Crankcase Heater Capacity {W}
  ,                                       !- Crankcase Heater Capacity Function of Temperature Curve Name
  10,                                     !- Maximum Outdoor Dry-Bulb Temperature for Crankcase Heater Operation {C}
  -25,                                    !- Minimum Outdoor Dry-Bulb Temperature for Compressor Operation {C}
  ,                                       !- Supply Water Storage Tank Name
  ,                                       !- Condensate Collection Water Storage Tank Name
  0,                                      !- Basin Heater Capacity {W/K}
  2,                                      !- Basin Heater Setpoint Temperature {C}
  ,                                       !- Basin Heater Operating Schedule Name
  8914.185229,                            !- Speed Reference Unit Gross Rated Total Cooling Capacity 1 {W}
  0.79,                                   !- Speed Reference Unit Gross Rated Sensible Heat Ratio 1 {dimensionless}
  3.93,                                   !- Speed Reference Unit Gross Rated Cooling COP 1 {W/W}
  0.944,                                  !- Speed Reference Unit Rated Air Flow Rate 1 {m3/s}
  773.3,                                  !- Speed Rated Evaporator Fan Power Per Volume Flow Rate 2017 1 {W/(m3/s)}
  934.4,                                  !- Speed Rated Evaporator Fan Power Per Volume Flow Rate 2023 1 {W/(m3/s)}
  ,                                       !- Speed Reference Unit Rated Condenser Air Flow Rate 1 {m3/s}
  ,                                       !- Speed Reference Unit Rated Pad Effectiveness of Evap Precooling 1 {dimensionless}
  Mitsubishi Hyper Heating VRF Outdoor Unit CCAPFT curve, !- Speed Total Cooling Capacity Function of Temperature Curve Name 1
  Mitsubishi Hyper Heating VRF Outdoor Unit CCAPFFF curve, !- Speed Total Cooling Capacity Function of Air Flow Fraction Curve Name 1
  Mitsubishi Hyper Heating VRF Outdoor Unit CEIRFT curve, !- Speed Energy Input Ratio Function of Temperature Curve Name 1
  Mitsubishi Hyper Heating VRF Outdoor Unit CEIRFFF curve; !- Speed Energy Input Ratio Function of Air Flow Fraction Curve Name 1

SetpointManager:MixedAir,
  CoilCoolingDXVariableSpeed_CCASHP 1 Outlet Air Node OS Default SPM, !- Name
  Temperature,                            !- Control Variable
  sys_4|mixed|shr>erv|sc>ccashp|sh>ccashp|ssf>cv|zh>b-e|zc>none|srf>none| Supply Outlet Node, !- Reference Setpoint Node Name
  CoilHeatingElectric 19 Outlet Air Node, !- Fan Inlet Node Name
  sys_4|mixed|shr>erv|sc>ccashp|sh>ccashp|ssf>cv|zh>b-e|zc>none|srf>none| Supply Outlet Node, !- Fan Outlet Node Name
  CoilCoolingDXVariableSpeed_CCASHP 1 Outlet Air Node; !- Setpoint Node or NodeList Name

CoilSystem:Heating:DX,
  CoilHeatingDXVariableSpeed_CCASHP 1 CoilSystem, !- Name
  ,                                       !- Availability Schedule Name
  Coil:Heating:DX:VariableSpeed,          !- Heating Coil Object Type
  CoilHeatingDXVariableSpeed_CCASHP 1;    !- Heating Coil Name

Coil:Heating:DX:VariableSpeed,
  CoilHeatingDXVariableSpeed_CCASHP 1,    !- Name
  CoilCoolingDXVariableSpeed_CCASHP 1 Outlet Air Node, !- Indoor Air Inlet Node Name
  CoilHeatingDXVariableSpeed_CCASHP 1 Outlet Air Node, !- Indoor Air Outlet Node Name
  1,                                      !- Number of Speeds {dimensionless}
  1,                                      !- Nominal Speed Level {dimensionless}
  11054.4873046875,                       !- Rated Heating Capacity At Selected Nominal Speed Level {W}
  AutoSize,                               !- Rated Air Flow Rate At Selected Nominal Speed Level {m3/s}
  Mitsubishi Hyper Heating VRF Outdoor Unit HPLFFPLR curve, !- Energy Part Load Fraction Curve Name
  Mitsubishi Hyper Heating VRF Outdoor Unit Defrost HEIRFT curve, !- Defrost Energy Input Ratio Function of Temperature Curve Name
  -25,                                    !- Minimum Outdoor Dry-Bulb Temperature for Compressor Operation {C}
  ,                                       !- Outdoor Dry-Bulb Temperature to Turn On Compressor {C}
  5,                                      !- Maximum Outdoor Dry-Bulb Temperature for Defrost Operation {C}
  1e-06,                                  !- Crankcase Heater Capacity {W}
  ,                                       !- Crankcase Heater Capacity Function of Temperature Curve Name
  10,                                     !- Maximum Outdoor Dry-Bulb Temperature for Crankcase Heater Operation {C}
  ReverseCycle,                           !- Defrost Strategy
  OnDemand,                               !- Defrost Control
  0.166667,                               !- Defrost Time Period Fraction
  AutoSize,                               !- Resistive Defrost Heater Capacity {W}
  9124.853458,                            !- Speed Reference Unit Gross Rated Heating Capacity 1 {W}
  4.2169508058831,                        !- Speed Reference Unit Gross Rated Heating COP 1 {W/W}
  0.653,                                  !- Speed Reference Unit Rated Air Flow Rate 1 {m3/s}
  773.3,                                  !- Speed Rated Supply Air Fan Power Per Volume Flow Rate 2017 1 {W/(m3/s)}
  934.4,                                  !- Speed Rated Supply Air Fan Power Per Volume Flow Rate 2023 1 {W/(m3/s)}
  Mitsubishi Hyper Heating VRF Outdoor Unit HCAPFT curve, !- Speed Heating Capacity Function of Temperature Curve Name 1
  Mitsubishi Hyper Heating VRF Outdoor Unit HCAPFFF curve, !- Speed Total  Heating Capacity Function of Air Flow Fraction Curve Name 1
  Mitsubishi Hyper Heating VRF Outdoor Unit HEIRFT curve, !- Speed Energy Input Ratio Function of Temperature Curve Name 1
  Mitsubishi Hyper Heating VRF Outdoor Unit HEIRFFF curve; !- Speed Energy Input Ratio Function of Air Flow Fraction Curve Name 1

SetpointManager:MixedAir,
  CoilHeatingDXVariableSpeed_CCASHP 1 Outlet Air Node OS Default SPM, !- Name
  Temperature,                            !- Control Variable
  sys_4|mixed|shr>erv|sc>ccashp|sh>ccashp|ssf>cv|zh>b-e|zc>none|srf>none| Supply Outlet Node, !- Reference Setpoint Node Name
  CoilHeatingElectric 19 Outlet Air Node, !- Fan Inlet Node Name
  sys_4|mixed|shr>erv|sc>ccashp|sh>ccashp|ssf>cv|zh>b-e|zc>none|srf>none| Supply Outlet Node, !- Fan Outlet Node Name
  CoilHeatingDXVariableSpeed_CCASHP 1 Outlet Air Node; !- Setpoint Node or NodeList Name

Coil:Heating:Electric,
  CoilHeatingElectric 19,                 !- Name
  Always On Discrete,                     !- Availability Schedule Name
  1,                                      !- Efficiency
  Autosize,                               !- Nominal Capacity {W}
  CoilHeatingDXVariableSpeed_CCASHP 1 Outlet Air Node, !- Air Inlet Node Name
  CoilHeatingElectric 19 Outlet Air Node, !- Air Outlet Node Name
  CoilHeatingElectric 19 Outlet Air Node; !- Temperature Setpoint Node Name

SetpointManager:MixedAir,
  CoilHeatingElectric 19 Outlet Air Node OS Default SPM, !- Name
  Temperature,                            !- Control Variable
  sys_4|mixed|shr>erv|sc>ccashp|sh>ccashp|ssf>cv|zh>b-e|zc>none|srf>none| Supply Outlet Node, !- Reference Setpoint Node Name
  CoilHeatingElectric 19 Outlet Air Node, !- Fan Inlet Node Name
  sys_4|mixed|shr>erv|sc>ccashp|sh>ccashp|ssf>cv|zh>b-e|zc>none|srf>none| Supply Outlet Node, !- Fan Outlet Node Name
  CoilHeatingElectric 19 Outlet Air Node; !- Setpoint Node or NodeList Name

Fan:ConstantVolume,
  Supply Fan 1,                           !- Name
  sys_4|mixed|shr>none|sc>ccashp|sh>ccashp|ssf>cv|zh>b-e|zc>none|srf>none| Occ Sch, !- Availability Schedule Name
  0.39975,                                !- Fan Total Efficiency
  640,                                    !- Pressure Rise {Pa}
  AutoSize,                               !- Maximum Flow Rate {m3/s}
  0.615,                                  !- Motor Efficiency
  1,                                      !- Motor In Airstream Fraction
  CoilHeatingElectric 19 Outlet Air Node, !- Air Inlet Node Name
  sys_4|mixed|shr>erv|sc>ccashp|sh>ccashp|ssf>cv|zh>b-e|zc>none|srf>none| Supply Outlet Node, !- Air Outlet Node Name
  ;                                       !- End-Use Subcategory

SetpointManager:SingleZone:Reheat,
  Setpoint Manager Single Zone Reheat 1,  !- Name
  Temperature,                            !- Control Variable
  13,                                     !- Minimum Supply Air Temperature {C}
  43,                                     !- Maximum Supply Air Temperature {C}
  WILD_ST=Corridor/Transition area other-sch-G_FL=Building Story 1_SCH=G, !- Control Zone Name
  WILD_ST=Corridor/Transition area other-sch-G_FL=Building Story 1_SCH=G Zone Air Node, !- Zone Node Name
  Air Terminal Single Duct Constant Volume No Reheat 19 Outlet Air Node, !- Zone Inlet Node Name
  sys_4|mixed|shr>erv|sc>ccashp|sh>ccashp|ssf>cv|zh>b-e|zc>none|srf>none| Supply Outlet Node; !- Setpoint Node or NodeList Name

AirLoopHVAC:SupplyPath,
  sys_4|mixed|shr>erv|sc>ccashp|sh>ccashp|ssf>cv|zh>b-e|zc>none|srf>none| sys_4|mixed|shr>erv|sc>ccashp|sh>ccashp|ssf>cv|zh>b-e|zc>none|srf>none| Demand Inlet Node Supply Path, !- Name
  sys_4|mixed|shr>erv|sc>ccashp|sh>ccashp|ssf>cv|zh>b-e|zc>none|srf>none| Demand Inlet Node, !- Supply Air Path Inlet Node Name
  AirLoopHVAC:ZoneSplitter,               !- Component Object Type 1
  Air Loop HVAC Zone Splitter 2;          !- Component Name 1

AirLoopHVAC:ZoneSplitter,
  Air Loop HVAC Zone Splitter 2,          !- Name
  sys_4|mixed|shr>erv|sc>ccashp|sh>ccashp|ssf>cv|zh>b-e|zc>none|srf>none| Demand Inlet Node, !- Inlet Node Name
  Air Terminal Single Duct Constant Volume No Reheat 19 Inlet Air Node, !- Outlet Node Name 1
  Air Terminal Single Duct Constant Volume No Reheat 20 Inlet Air Node, !- Outlet Node Name 2
  Air Terminal Single Duct Constant Volume No Reheat 21 Inlet Air Node; !- Outlet Node Name 3

AirLoopHVAC:ReturnPath,
  sys_4|mixed|shr>erv|sc>ccashp|sh>ccashp|ssf>cv|zh>b-e|zc>none|srf>none| Return Path, !- Name
  sys_4|mixed|shr>erv|sc>ccashp|sh>ccashp|ssf>cv|zh>b-e|zc>none|srf>none| Demand Outlet Node, !- Return Air Path Outlet Node Name
  AirLoopHVAC:ZoneMixer,                  !- Component Object Type 1
  Air Loop HVAC Zone Mixer 2;             !- Component Name 1

AirLoopHVAC:ZoneMixer,
  Air Loop HVAC Zone Mixer 2,             !- Name
  sys_4|mixed|shr>erv|sc>ccashp|sh>ccashp|ssf>cv|zh>b-e|zc>none|srf>none| Demand Outlet Node, !- Outlet Node Name
  WILD_ST=Corridor/Transition area other-sch-G_FL=Building Story 1_SCH=G Return Air Node, !- Inlet Node Name 1
  WILD_ST=Corridor/Transition area other-sch-G_FL=Building Story 2_SCH=G Return Air Node, !- Inlet Node Name 2
  WILD_ST=Corridor/Transition area other-sch-G_FL=Building Story 3_SCH=G Return Air Node; !- Inlet Node Name 3

PlantLoop,
  Main Service Water Loop,                !- Name
  Water,                                  !- Fluid Type
  ,                                       !- User Defined Fluid Type
  Main Service Water Loop Operation Schemes, !- Plant Equipment Operation Scheme Name
  Main Service Water Loop Supply Outlet Node, !- Loop Temperature Setpoint Node Name
  60,                                     !- Maximum Loop Temperature {C}
  51.6666666666667,                       !- Minimum Loop Temperature {C}
  Autosize,                               !- Maximum Loop Flow Rate {m3/s}
  0,                                      !- Minimum Loop Flow Rate {m3/s}
  Autocalculate,                          !- Plant Loop Volume {m3}
  Main Service Water Loop Supply Inlet Node, !- Plant Side Inlet Node Name
  Main Service Water Loop Supply Outlet Node, !- Plant Side Outlet Node Name
  Main Service Water Loop Supply Branches, !- Plant Side Branch List Name
  Main Service Water Loop Supply Connector List, !- Plant Side Connector List Name
  Main Service Water Loop Demand Inlet Node, !- Demand Side Inlet Node Name
  Main Service Water Loop Demand Outlet Node, !- Demand Side Outlet Node Name
  Main Service Water Loop Demand Branches, !- Demand Side Branch List Name
  Main Service Water Loop Demand Connector List, !- Demand Side Connector List Name
  Optimal,                                !- Load Distribution Scheme
  ,                                       !- Availability Manager List Name
  SingleSetpoint,                         !- Plant Loop Demand Calculation Scheme
  None;                                   !- Common Pipe Simulation

Sizing:Plant,
  Main Service Water Loop,                !- Plant or Condenser Loop Name
  Heating,                                !- Loop Type
  60,                                     !- Design Loop Exit Temperature {C}
  5,                                      !- Loop Design Temperature Difference {deltaC}
  NonCoincident,                          !- Sizing Option
  1,                                      !- Zone Timesteps in Averaging Window
  None;                                   !- Coincident Sizing Factor Mode

BranchList,
  Main Service Water Loop Supply Branches, !- Name
  Main Service Water Loop Supply Inlet Branch, !- Branch Name 1
  Main Service Water Loop Supply Branch 1, !- Branch Name 2
  Main Service Water Loop Supply Branch 2, !- Branch Name 3
  Main Service Water Loop Supply Outlet Branch; !- Branch Name 4

ConnectorList,
  Main Service Water Loop Supply Connector List, !- Name
  Connector:Splitter,                     !- Connector Object Type 1
  Main Service Water Loop Supply Splitter, !- Connector Name 1
  Connector:Mixer,                        !- Connector Object Type 2
  Main Service Water Loop Supply Mixer;   !- Connector Name 2

Connector:Splitter,
  Main Service Water Loop Supply Splitter, !- Name
  Main Service Water Loop Supply Inlet Branch, !- Inlet Branch Name
  Main Service Water Loop Supply Branch 1, !- Outlet Branch Name 1
  Main Service Water Loop Supply Branch 2; !- Outlet Branch Name 2

Connector:Mixer,
  Main Service Water Loop Supply Mixer,   !- Name
  Main Service Water Loop Supply Outlet Branch, !- Outlet Branch Name
  Main Service Water Loop Supply Branch 1, !- Inlet Branch Name 1
  Main Service Water Loop Supply Branch 2; !- Inlet Branch Name 2

Branch,
  Main Service Water Loop Supply Inlet Branch, !- Name
  ,                                       !- Pressure Drop Curve Name
  Pump:ConstantSpeed,                     !- Component Object Type 1
  Main Service Water Loop Circulator Pump, !- Component Name 1
  Main Service Water Loop Supply Inlet Node, !- Component Inlet Node Name 1
  Main Service Water Loop Circulator Pump Outlet Water Node; !- Component Outlet Node Name 1

Pump:ConstantSpeed,
  Main Service Water Loop Circulator Pump, !- Name
  Main Service Water Loop Supply Inlet Node, !- Inlet Node Name
  Main Service Water Loop Circulator Pump Outlet Water Node, !- Outlet Node Name
  Autosize,                               !- Design Flow Rate {m3/s}
  300034.203156788,                       !- Design Pump Head {Pa}
  Autosize,                               !- Design Power Consumption {W}
  0.855,                                  !- Motor Efficiency
  0,                                      !- Fraction of Motor Inefficiencies to Fluid Stream
  Intermittent,                           !- Pump Control Type
  ,                                       !- Pump Flow Rate Schedule Name
  ,                                       !- Pump Curve Name
  ,                                       !- Impeller Diameter {m}
  ,                                       !- Rotational Speed {rev/min}
  ,                                       !- Zone Name
  ,                                       !- Skin Loss Radiative Fraction
  PowerPerFlowPerPressure,                !- Design Power Sizing Method
  348701.1,                               !- Design Electric Power per Unit Flow Rate {W/(m3/s)}
  1.282051282,                            !- Design Shaft Power per Unit Flow Rate per Unit Head {W-s/m3-Pa}
  General;                                !- End-Use Subcategory

Branch,
  Main Service Water Loop Supply Branch 1, !- Name
  ,                                       !- Pressure Drop Curve Name
  WaterHeater:Mixed,                      !- Component Object Type 1
  160gal Electricity Water Heater - 108kBtu/hr 1 Therm Eff, !- Component Name 1
  160gal Electricity Water Heater - 108kBtu/hr 1 Therm Eff Supply Inlet Water Node, !- Component Inlet Node Name 1
  160gal Electricity Water Heater - 108kBtu/hr 1 Therm Eff Supply Outlet Water Node; !- Component Outlet Node Name 1

WaterHeater:Mixed,
  160gal Electricity Water Heater - 108kBtu/hr 1 Therm Eff, !- Name
  0.607451405400669,                      !- Tank Volume {m3}
  Service Water Loop Temp - 140F,         !- Setpoint Temperature Schedule Name
  2,                                      !- Deadband Temperature Difference {deltaC}
  60,                                     !- Maximum Temperature Limit {C}
  Cycle,                                  !- Heater Control Type
  31739.3359321849,                       !- Heater Maximum Capacity {W}
  ,                                       !- Heater Minimum Capacity {W}
  0,                                      !- Heater Ignition Minimum Flow Rate {m3/s}
  0,                                      !- Heater Ignition Delay {s}
  Electricity,                            !- Heater Fuel Type
  1,                                      !- Heater Thermal Efficiency
  ,                                       !- Part Load Factor Curve Name
  69.4854093427289,                       !- Off Cycle Parasitic Fuel Consumption Rate {W}
  Electricity,                            !- Off Cycle Parasitic Fuel Type
  0.8,                                    !- Off Cycle Parasitic Heat Fraction to Tank
  69.4854093427289,                       !- On Cycle Parasitic Fuel Consumption Rate {W}
  Electricity,                            !- On Cycle Parasitic Fuel Type
  0,                                      !- On Cycle Parasitic Heat Fraction to Tank
  Schedule,                               !- Ambient Temperature Indicator
  Water Heater Ambient Temp Schedule 71.6F, !- Ambient Temperature Schedule Name
  ,                                       !- Ambient Temperature Zone Name
  ,                                       !- Ambient Temperature Outdoor Air Node Name
  0.0120405577035103,                     !- Off Cycle Loss Coefficient to Ambient Temperature {W/K}
  1,                                      !- Off Cycle Loss Fraction to Zone
  0.0120405577035103,                     !- On Cycle Loss Coefficient to Ambient Temperature {W/K}
  1,                                      !- On Cycle Loss Fraction to Zone
  ,                                       !- Peak Use Flow Rate {m3/s}
  ,                                       !- Use Flow Rate Fraction Schedule Name
  ,                                       !- Cold Water Supply Temperature Schedule Name
  160gal Electricity Water Heater - 108kBtu/hr 1 Therm Eff Supply Inlet Water Node, !- Use Side Inlet Node Name
  160gal Electricity Water Heater - 108kBtu/hr 1 Therm Eff Supply Outlet Water Node, !- Use Side Outlet Node Name
  1,                                      !- Use Side Effectiveness
  ,                                       !- Source Side Inlet Node Name
  ,                                       !- Source Side Outlet Node Name
  1,                                      !- Source Side Effectiveness
  Autosize,                               !- Use Side Design Flow Rate {m3/s}
  Autosize,                               !- Source Side Design Flow Rate {m3/s}
  1.5,                                    !- Indirect Water Heating Recovery Time {hr}
  IndirectHeatPrimarySetpoint,            !- Source Side Flow Control Mode
  ,                                       !- Indirect Alternate Setpoint Temperature Schedule Name
  General;                                !- End-Use Subcategory

WaterHeater:Sizing,
  160gal Electricity Water Heater - 108kBtu/hr 1 Therm Eff, !- WaterHeater Name
  PeakDraw,                               !- Design Mode
  0.538503,                               !- Time Storage Can Meet Peak Draw {hr}
  1,                                      !- Time for Tank Recovery {hr}
  1;                                      !- Nominal Tank Volume for Autosizing Plant Connections {m3}

Branch,
  Main Service Water Loop Supply Branch 2, !- Name
  ,                                       !- Pressure Drop Curve Name
  Pipe:Adiabatic,                         !- Component Object Type 1
  Pipe Adiabatic 1,                       !- Component Name 1
  Pipe Adiabatic 1 Inlet Water Node,      !- Component Inlet Node Name 1
  Pipe Adiabatic 1 Outlet Water Node;     !- Component Outlet Node Name 1

Pipe:Adiabatic,
  Pipe Adiabatic 1,                       !- Name
  Pipe Adiabatic 1 Inlet Water Node,      !- Inlet Node Name
  Pipe Adiabatic 1 Outlet Water Node;     !- Outlet Node Name

Branch,
  Main Service Water Loop Supply Outlet Branch, !- Name
  ,                                       !- Pressure Drop Curve Name
  Pipe:Adiabatic,                         !- Component Object Type 1
  Pipe Adiabatic 3,                       !- Component Name 1
  Pipe Adiabatic 3 Inlet Water Node,      !- Component Inlet Node Name 1
  Main Service Water Loop Supply Outlet Node; !- Component Outlet Node Name 1

Pipe:Adiabatic,
  Pipe Adiabatic 3,                       !- Name
  Pipe Adiabatic 3 Inlet Water Node,      !- Inlet Node Name
  Main Service Water Loop Supply Outlet Node; !- Outlet Node Name

SetpointManager:Scheduled,
  Service hot water setpoint manager,     !- Name
  Temperature,                            !- Control Variable
  Service Water Loop Temp - 140F,         !- Schedule Name
  Main Service Water Loop Supply Outlet Node; !- Setpoint Node or NodeList Name

BranchList,
  Main Service Water Loop Demand Branches, !- Name
  Main Service Water Loop Demand Inlet Branch, !- Branch Name 1
  Main Service Water Loop Demand Branch 1, !- Branch Name 2
  Main Service Water Loop Demand Branch 2, !- Branch Name 3
  Main Service Water Loop Demand Branch 3, !- Branch Name 4
  Main Service Water Loop Demand Branch 4, !- Branch Name 5
  Main Service Water Loop Demand Branch 5, !- Branch Name 6
  Main Service Water Loop Demand Branch 6, !- Branch Name 7
  Main Service Water Loop Demand Branch 7, !- Branch Name 8
  Main Service Water Loop Demand Branch 8, !- Branch Name 9
  Main Service Water Loop Demand Branch 9, !- Branch Name 10
  Main Service Water Loop Demand Branch 10, !- Branch Name 11
  Main Service Water Loop Demand Branch 11, !- Branch Name 12
  Main Service Water Loop Demand Branch 12, !- Branch Name 13
  Main Service Water Loop Demand Branch 13, !- Branch Name 14
  Main Service Water Loop Demand Branch 14, !- Branch Name 15
  Main Service Water Loop Demand Branch 15, !- Branch Name 16
  Main Service Water Loop Demand Branch 16, !- Branch Name 17
  Main Service Water Loop Demand Branch 17, !- Branch Name 18
  Main Service Water Loop Demand Branch 18, !- Branch Name 19
  Main Service Water Loop Demand Branch 19, !- Branch Name 20
  Main Service Water Loop Demand Bypass Branch, !- Branch Name 21
  Main Service Water Loop Demand Outlet Branch; !- Branch Name 22

ConnectorList,
  Main Service Water Loop Demand Connector List, !- Name
  Connector:Splitter,                     !- Connector Object Type 1
  Main Service Water Loop Demand Splitter, !- Connector Name 1
  Connector:Mixer,                        !- Connector Object Type 2
  Main Service Water Loop Demand Mixer;   !- Connector Name 2

Connector:Splitter,
  Main Service Water Loop Demand Splitter, !- Name
  Main Service Water Loop Demand Inlet Branch, !- Inlet Branch Name
  Main Service Water Loop Demand Branch 1, !- Outlet Branch Name 1
  Main Service Water Loop Demand Branch 2, !- Outlet Branch Name 2
  Main Service Water Loop Demand Branch 3, !- Outlet Branch Name 3
  Main Service Water Loop Demand Branch 4, !- Outlet Branch Name 4
  Main Service Water Loop Demand Branch 5, !- Outlet Branch Name 5
  Main Service Water Loop Demand Branch 6, !- Outlet Branch Name 6
  Main Service Water Loop Demand Branch 7, !- Outlet Branch Name 7
  Main Service Water Loop Demand Branch 8, !- Outlet Branch Name 8
  Main Service Water Loop Demand Branch 9, !- Outlet Branch Name 9
  Main Service Water Loop Demand Branch 10, !- Outlet Branch Name 10
  Main Service Water Loop Demand Branch 11, !- Outlet Branch Name 11
  Main Service Water Loop Demand Branch 12, !- Outlet Branch Name 12
  Main Service Water Loop Demand Branch 13, !- Outlet Branch Name 13
  Main Service Water Loop Demand Branch 14, !- Outlet Branch Name 14
  Main Service Water Loop Demand Branch 15, !- Outlet Branch Name 15
  Main Service Water Loop Demand Branch 16, !- Outlet Branch Name 16
  Main Service Water Loop Demand Branch 17, !- Outlet Branch Name 17
  Main Service Water Loop Demand Branch 18, !- Outlet Branch Name 18
  Main Service Water Loop Demand Branch 19, !- Outlet Branch Name 19
  Main Service Water Loop Demand Bypass Branch; !- Outlet Branch Name 20

Connector:Mixer,
  Main Service Water Loop Demand Mixer,   !- Name
  Main Service Water Loop Demand Outlet Branch, !- Outlet Branch Name
  Main Service Water Loop Demand Branch 1, !- Inlet Branch Name 1
  Main Service Water Loop Demand Branch 2, !- Inlet Branch Name 2
  Main Service Water Loop Demand Branch 3, !- Inlet Branch Name 3
  Main Service Water Loop Demand Branch 4, !- Inlet Branch Name 4
  Main Service Water Loop Demand Branch 5, !- Inlet Branch Name 5
  Main Service Water Loop Demand Branch 6, !- Inlet Branch Name 6
  Main Service Water Loop Demand Branch 7, !- Inlet Branch Name 7
  Main Service Water Loop Demand Branch 8, !- Inlet Branch Name 8
  Main Service Water Loop Demand Branch 9, !- Inlet Branch Name 9
  Main Service Water Loop Demand Branch 10, !- Inlet Branch Name 10
  Main Service Water Loop Demand Branch 11, !- Inlet Branch Name 11
  Main Service Water Loop Demand Branch 12, !- Inlet Branch Name 12
  Main Service Water Loop Demand Branch 13, !- Inlet Branch Name 13
  Main Service Water Loop Demand Branch 14, !- Inlet Branch Name 14
  Main Service Water Loop Demand Branch 15, !- Inlet Branch Name 15
  Main Service Water Loop Demand Branch 16, !- Inlet Branch Name 16
  Main Service Water Loop Demand Branch 17, !- Inlet Branch Name 17
  Main Service Water Loop Demand Branch 18, !- Inlet Branch Name 18
  Main Service Water Loop Demand Branch 19, !- Inlet Branch Name 19
  Main Service Water Loop Demand Bypass Branch; !- Inlet Branch Name 20

Branch,
  Main Service Water Loop Demand Inlet Branch, !- Name
  ,                                       !- Pressure Drop Curve Name
  Pipe:Adiabatic,                         !- Component Object Type 1
  Main Service Water Loop Demand Inlet Pipe, !- Component Name 1
  Main Service Water Loop Demand Inlet Node, !- Component Inlet Node Name 1
  Main Service Water Loop Demand Inlet Pipe Node; !- Component Outlet Node Name 1

Pipe:Adiabatic,
  Main Service Water Loop Demand Inlet Pipe, !- Name
  Main Service Water Loop Demand Inlet Node, !- Inlet Node Name
  Main Service Water Loop Demand Inlet Pipe Node; !- Outlet Node Name

Branch,
  Main Service Water Loop Demand Branch 1, !- Name
  ,                                       !- Pressure Drop Curve Name
  Pipe:Adiabatic,                         !- Component Object Type 1
  Pipe Adiabatic 2,                       !- Component Name 1
  Pipe Adiabatic 2 Inlet Water Node,      !- Component Inlet Node Name 1
  Pipe Adiabatic 2 Outlet Water Node;     !- Component Outlet Node Name 1

Pipe:Adiabatic,
  Pipe Adiabatic 2,                       !- Name
  Pipe Adiabatic 2 Inlet Water Node,      !- Inlet Node Name
  Pipe Adiabatic 2 Outlet Water Node;     !- Outlet Node Name

Branch,
  Main Service Water Loop Demand Branch 2, !- Name
  ,                                       !- Pressure Drop Curve Name
  WaterUse:Connections,                   !- Component Object Type 1
  G N1 Apartment WUC 0.1486gpm 140F,      !- Component Name 1
  G N1 Apartment WUC 0.1486gpm 140F Inlet Water Node, !- Component Inlet Node Name 1
  G N1 Apartment WUC 0.1486gpm 140F Outlet Water Node; !- Component Outlet Node Name 1

WaterUse:Connections,
  G N1 Apartment WUC 0.1486gpm 140F,      !- Name
  G N1 Apartment WUC 0.1486gpm 140F Inlet Water Node, !- Inlet Node Name
  G N1 Apartment WUC 0.1486gpm 140F Outlet Water Node, !- Outlet Node Name
  ,                                       !- Supply Water Storage Tank Name
  ,                                       !- Reclamation Water Storage Tank Name
  ,                                       !- Hot Water Supply Temperature Schedule Name
  ,                                       !- Cold Water Supply Temperature Schedule Name
  None,                                   !- Drain Water Heat Exchanger Type
  Plant,                                  !- Drain Water Heat Exchanger Destination
  ,                                       !- Drain Water Heat Exchanger U-Factor Times Area {W/K}
  G N1 Apartment Service Water Use 0.1486gpm 140F; !- Water Use Equipment Name 1

WaterUse:Equipment,
  G N1 Apartment Service Water Use 0.1486gpm 140F, !- Name
  General,                                !- End-Use Subcategory
  9.37425007600047e-06,                   !- Peak Flow Rate {m3/s}
  NECB-G-Service Water Heating,           !- Flow Rate Fraction Schedule Name
  Mixed Water At Faucet Temp - 140F,      !- Target Temperature Schedule Name
  ,                                       !- Hot Water Supply Temperature Schedule Name
  ,                                       !- Cold Water Supply Temperature Schedule Name
  DU_BT=Space Function_ST=Dwelling units general_FL=Building Story 1_SCHG 10, !- Zone Name
  Fraction Sensible - 0.2,                !- Sensible Fraction Schedule Name
  Fraction Latent - 0.05;                 !- Latent Fraction Schedule Name

Branch,
  Main Service Water Loop Demand Branch 3, !- Name
  ,                                       !- Pressure Drop Curve Name
  WaterUse:Connections,                   !- Component Object Type 1
  G NE Apartment WUC 0.1486gpm 140F,      !- Component Name 1
  G NE Apartment WUC 0.1486gpm 140F Inlet Water Node, !- Component Inlet Node Name 1
  G NE Apartment WUC 0.1486gpm 140F Outlet Water Node; !- Component Outlet Node Name 1

WaterUse:Connections,
  G NE Apartment WUC 0.1486gpm 140F,      !- Name
  G NE Apartment WUC 0.1486gpm 140F Inlet Water Node, !- Inlet Node Name
  G NE Apartment WUC 0.1486gpm 140F Outlet Water Node, !- Outlet Node Name
  ,                                       !- Supply Water Storage Tank Name
  ,                                       !- Reclamation Water Storage Tank Name
  ,                                       !- Hot Water Supply Temperature Schedule Name
  ,                                       !- Cold Water Supply Temperature Schedule Name
  None,                                   !- Drain Water Heat Exchanger Type
  Plant,                                  !- Drain Water Heat Exchanger Destination
  ,                                       !- Drain Water Heat Exchanger U-Factor Times Area {W/K}
  G NE Apartment Service Water Use 0.1486gpm 140F; !- Water Use Equipment Name 1

WaterUse:Equipment,
  G NE Apartment Service Water Use 0.1486gpm 140F, !- Name
  General,                                !- End-Use Subcategory
  9.37425007600047e-06,                   !- Peak Flow Rate {m3/s}
  NECB-G-Service Water Heating,           !- Flow Rate Fraction Schedule Name
  Mixed Water At Faucet Temp - 140F,      !- Target Temperature Schedule Name
  ,                                       !- Hot Water Supply Temperature Schedule Name
  ,                                       !- Cold Water Supply Temperature Schedule Name
  DU_BT=Space Function_ST=Dwelling units general_FL=Building Story 1_SCHG, !- Zone Name
  Fraction Sensible - 0.2,                !- Sensible Fraction Schedule Name
  Fraction Latent - 0.05;                 !- Latent Fraction Schedule Name

Branch,
  Main Service Water Loop Demand Branch 4, !- Name
  ,                                       !- Pressure Drop Curve Name
  WaterUse:Connections,                   !- Component Object Type 1
  G NW Apartment WUC 0.1486gpm 140F,      !- Component Name 1
  G NW Apartment WUC 0.1486gpm 140F Inlet Water Node, !- Component Inlet Node Name 1
  G NW Apartment WUC 0.1486gpm 140F Outlet Water Node; !- Component Outlet Node Name 1

WaterUse:Connections,
  G NW Apartment WUC 0.1486gpm 140F,      !- Name
  G NW Apartment WUC 0.1486gpm 140F Inlet Water Node, !- Inlet Node Name
  G NW Apartment WUC 0.1486gpm 140F Outlet Water Node, !- Outlet Node Name
  ,                                       !- Supply Water Storage Tank Name
  ,                                       !- Reclamation Water Storage Tank Name
  ,                                       !- Hot Water Supply Temperature Schedule Name
  ,                                       !- Cold Water Supply Temperature Schedule Name
  None,                                   !- Drain Water Heat Exchanger Type
  Plant,                                  !- Drain Water Heat Exchanger Destination
  ,                                       !- Drain Water Heat Exchanger U-Factor Times Area {W/K}
  G NW Apartment Service Water Use 0.1486gpm 140F; !- Water Use Equipment Name 1

WaterUse:Equipment,
  G NW Apartment Service Water Use 0.1486gpm 140F, !- Name
  General,                                !- End-Use Subcategory
  9.37425007600047e-06,                   !- Peak Flow Rate {m3/s}
  NECB-G-Service Water Heating,           !- Flow Rate Fraction Schedule Name
  Mixed Water At Faucet Temp - 140F,      !- Target Temperature Schedule Name
  ,                                       !- Hot Water Supply Temperature Schedule Name
  ,                                       !- Cold Water Supply Temperature Schedule Name
  DU_BT=Space Function_ST=Dwelling units general_FL=Building Story 1_SCHG 8, !- Zone Name
  Fraction Sensible - 0.2,                !- Sensible Fraction Schedule Name
  Fraction Latent - 0.05;                 !- Latent Fraction Schedule Name

Branch,
  Main Service Water Loop Demand Branch 5, !- Name
  ,                                       !- Pressure Drop Curve Name
  WaterUse:Connections,                   !- Component Object Type 1
  G S1 Apartment WUC 0.1486gpm 140F,      !- Component Name 1
  G S1 Apartment WUC 0.1486gpm 140F Inlet Water Node, !- Component Inlet Node Name 1
  G S1 Apartment WUC 0.1486gpm 140F Outlet Water Node; !- Component Outlet Node Name 1

WaterUse:Connections,
  G S1 Apartment WUC 0.1486gpm 140F,      !- Name
  G S1 Apartment WUC 0.1486gpm 140F Inlet Water Node, !- Inlet Node Name
  G S1 Apartment WUC 0.1486gpm 140F Outlet Water Node, !- Outlet Node Name
  ,                                       !- Supply Water Storage Tank Name
  ,                                       !- Reclamation Water Storage Tank Name
  ,                                       !- Hot Water Supply Temperature Schedule Name
  ,                                       !- Cold Water Supply Temperature Schedule Name
  None,                                   !- Drain Water Heat Exchanger Type
  Plant,                                  !- Drain Water Heat Exchanger Destination
  ,                                       !- Drain Water Heat Exchanger U-Factor Times Area {W/K}
  G S1 Apartment Service Water Use 0.1486gpm 140F; !- Water Use Equipment Name 1

WaterUse:Equipment,
  G S1 Apartment Service Water Use 0.1486gpm 140F, !- Name
  General,                                !- End-Use Subcategory
  9.37425007600047e-06,                   !- Peak Flow Rate {m3/s}
  NECB-G-Service Water Heating,           !- Flow Rate Fraction Schedule Name
  Mixed Water At Faucet Temp - 140F,      !- Target Temperature Schedule Name
  ,                                       !- Hot Water Supply Temperature Schedule Name
  ,                                       !- Cold Water Supply Temperature Schedule Name
  DU_BT=Space Function_ST=Dwelling units general_FL=Building Story 1_SCHG 11, !- Zone Name
  Fraction Sensible - 0.2,                !- Sensible Fraction Schedule Name
  Fraction Latent - 0.05;                 !- Latent Fraction Schedule Name

Branch,
  Main Service Water Loop Demand Branch 6, !- Name
  ,                                       !- Pressure Drop Curve Name
  WaterUse:Connections,                   !- Component Object Type 1
  G SW Apartment WUC 0.1486gpm 140F,      !- Component Name 1
  G SW Apartment WUC 0.1486gpm 140F Inlet Water Node, !- Component Inlet Node Name 1
  G SW Apartment WUC 0.1486gpm 140F Outlet Water Node; !- Component Outlet Node Name 1

WaterUse:Connections,
  G SW Apartment WUC 0.1486gpm 140F,      !- Name
  G SW Apartment WUC 0.1486gpm 140F Inlet Water Node, !- Inlet Node Name
  G SW Apartment WUC 0.1486gpm 140F Outlet Water Node, !- Outlet Node Name
  ,                                       !- Supply Water Storage Tank Name
  ,                                       !- Reclamation Water Storage Tank Name
  ,                                       !- Hot Water Supply Temperature Schedule Name
  ,                                       !- Cold Water Supply Temperature Schedule Name
  None,                                   !- Drain Water Heat Exchanger Type
  Plant,                                  !- Drain Water Heat Exchanger Destination
  ,                                       !- Drain Water Heat Exchanger U-Factor Times Area {W/K}
  G SW Apartment Service Water Use 0.1486gpm 140F; !- Water Use Equipment Name 1

WaterUse:Equipment,
  G SW Apartment Service Water Use 0.1486gpm 140F, !- Name
  General,                                !- End-Use Subcategory
  9.37425007600047e-06,                   !- Peak Flow Rate {m3/s}
  NECB-G-Service Water Heating,           !- Flow Rate Fraction Schedule Name
  Mixed Water At Faucet Temp - 140F,      !- Target Temperature Schedule Name
  ,                                       !- Hot Water Supply Temperature Schedule Name
  ,                                       !- Cold Water Supply Temperature Schedule Name
  DU_BT=Space Function_ST=Dwelling units general_FL=Building Story 1_SCHG 9, !- Zone Name
  Fraction Sensible - 0.2,                !- Sensible Fraction Schedule Name
  Fraction Latent - 0.05;                 !- Latent Fraction Schedule Name

Branch,
  Main Service Water Loop Demand Branch 7, !- Name
  ,                                       !- Pressure Drop Curve Name
  WaterUse:Connections,                   !- Component Object Type 1
  M N1 Apartment WUC 0.1486gpm 140F,      !- Component Name 1
  M N1 Apartment WUC 0.1486gpm 140F Inlet Water Node, !- Component Inlet Node Name 1
  M N1 Apartment WUC 0.1486gpm 140F Outlet Water Node; !- Component Outlet Node Name 1

WaterUse:Connections,
  M N1 Apartment WUC 0.1486gpm 140F,      !- Name
  M N1 Apartment WUC 0.1486gpm 140F Inlet Water Node, !- Inlet Node Name
  M N1 Apartment WUC 0.1486gpm 140F Outlet Water Node, !- Outlet Node Name
  ,                                       !- Supply Water Storage Tank Name
  ,                                       !- Reclamation Water Storage Tank Name
  ,                                       !- Hot Water Supply Temperature Schedule Name
  ,                                       !- Cold Water Supply Temperature Schedule Name
  None,                                   !- Drain Water Heat Exchanger Type
  Plant,                                  !- Drain Water Heat Exchanger Destination
  ,                                       !- Drain Water Heat Exchanger U-Factor Times Area {W/K}
  M N1 Apartment Service Water Use 0.1486gpm 140F; !- Water Use Equipment Name 1

WaterUse:Equipment,
  M N1 Apartment Service Water Use 0.1486gpm 140F, !- Name
  General,                                !- End-Use Subcategory
  9.37425007600047e-06,                   !- Peak Flow Rate {m3/s}
  NECB-G-Service Water Heating,           !- Flow Rate Fraction Schedule Name
  Mixed Water At Faucet Temp - 140F,      !- Target Temperature Schedule Name
  ,                                       !- Hot Water Supply Temperature Schedule Name
  ,                                       !- Cold Water Supply Temperature Schedule Name
  DU_BT=Space Function_ST=Dwelling units general_FL=Building Story 2_SCHG, !- Zone Name
  Fraction Sensible - 0.2,                !- Sensible Fraction Schedule Name
  Fraction Latent - 0.05;                 !- Latent Fraction Schedule Name

Branch,
  Main Service Water Loop Demand Branch 8, !- Name
  ,                                       !- Pressure Drop Curve Name
  WaterUse:Connections,                   !- Component Object Type 1
  M NE Apartment WUC 0.1486gpm 140F,      !- Component Name 1
  M NE Apartment WUC 0.1486gpm 140F Inlet Water Node, !- Component Inlet Node Name 1
  M NE Apartment WUC 0.1486gpm 140F Outlet Water Node; !- Component Outlet Node Name 1

WaterUse:Connections,
  M NE Apartment WUC 0.1486gpm 140F,      !- Name
  M NE Apartment WUC 0.1486gpm 140F Inlet Water Node, !- Inlet Node Name
  M NE Apartment WUC 0.1486gpm 140F Outlet Water Node, !- Outlet Node Name
  ,                                       !- Supply Water Storage Tank Name
  ,                                       !- Reclamation Water Storage Tank Name
  ,                                       !- Hot Water Supply Temperature Schedule Name
  ,                                       !- Cold Water Supply Temperature Schedule Name
  None,                                   !- Drain Water Heat Exchanger Type
  Plant,                                  !- Drain Water Heat Exchanger Destination
  ,                                       !- Drain Water Heat Exchanger U-Factor Times Area {W/K}
  M NE Apartment Service Water Use 0.1486gpm 140F; !- Water Use Equipment Name 1

WaterUse:Equipment,
  M NE Apartment Service Water Use 0.1486gpm 140F, !- Name
  General,                                !- End-Use Subcategory
  9.37425007600047e-06,                   !- Peak Flow Rate {m3/s}
  NECB-G-Service Water Heating,           !- Flow Rate Fraction Schedule Name
  Mixed Water At Faucet Temp - 140F,      !- Target Temperature Schedule Name
  ,                                       !- Hot Water Supply Temperature Schedule Name
  ,                                       !- Cold Water Supply Temperature Schedule Name
  DU_BT=Space Function_ST=Dwelling units general_FL=Building Story 2_SCHG 12, !- Zone Name
  Fraction Sensible - 0.2,                !- Sensible Fraction Schedule Name
  Fraction Latent - 0.05;                 !- Latent Fraction Schedule Name

Branch,
  Main Service Water Loop Demand Branch 9, !- Name
  ,                                       !- Pressure Drop Curve Name
  WaterUse:Connections,                   !- Component Object Type 1
  M NW Apartment WUC 0.1486gpm 140F,      !- Component Name 1
  M NW Apartment WUC 0.1486gpm 140F Inlet Water Node, !- Component Inlet Node Name 1
  M NW Apartment WUC 0.1486gpm 140F Outlet Water Node; !- Component Outlet Node Name 1

WaterUse:Connections,
  M NW Apartment WUC 0.1486gpm 140F,      !- Name
  M NW Apartment WUC 0.1486gpm 140F Inlet Water Node, !- Inlet Node Name
  M NW Apartment WUC 0.1486gpm 140F Outlet Water Node, !- Outlet Node Name
  ,                                       !- Supply Water Storage Tank Name
  ,                                       !- Reclamation Water Storage Tank Name
  ,                                       !- Hot Water Supply Temperature Schedule Name
  ,                                       !- Cold Water Supply Temperature Schedule Name
  None,                                   !- Drain Water Heat Exchanger Type
  Plant,                                  !- Drain Water Heat Exchanger Destination
  ,                                       !- Drain Water Heat Exchanger U-Factor Times Area {W/K}
  M NW Apartment Service Water Use 0.1486gpm 140F; !- Water Use Equipment Name 1

WaterUse:Equipment,
  M NW Apartment Service Water Use 0.1486gpm 140F, !- Name
  General,                                !- End-Use Subcategory
  9.37425007600047e-06,                   !- Peak Flow Rate {m3/s}
  NECB-G-Service Water Heating,           !- Flow Rate Fraction Schedule Name
  Mixed Water At Faucet Temp - 140F,      !- Target Temperature Schedule Name
  ,                                       !- Hot Water Supply Temperature Schedule Name
  ,                                       !- Cold Water Supply Temperature Schedule Name
  DU_BT=Space Function_ST=Dwelling units general_FL=Building Story 2_SCHG 8, !- Zone Name
  Fraction Sensible - 0.2,                !- Sensible Fraction Schedule Name
  Fraction Latent - 0.05;                 !- Latent Fraction Schedule Name

Branch,
  Main Service Water Loop Demand Branch 10, !- Name
  ,                                       !- Pressure Drop Curve Name
  WaterUse:Connections,                   !- Component Object Type 1
  M S1 Apartment WUC 0.1486gpm 140F,      !- Component Name 1
  M S1 Apartment WUC 0.1486gpm 140F Inlet Water Node, !- Component Inlet Node Name 1
  M S1 Apartment WUC 0.1486gpm 140F Outlet Water Node; !- Component Outlet Node Name 1

WaterUse:Connections,
  M S1 Apartment WUC 0.1486gpm 140F,      !- Name
  M S1 Apartment WUC 0.1486gpm 140F Inlet Water Node, !- Inlet Node Name
  M S1 Apartment WUC 0.1486gpm 140F Outlet Water Node, !- Outlet Node Name
  ,                                       !- Supply Water Storage Tank Name
  ,                                       !- Reclamation Water Storage Tank Name
  ,                                       !- Hot Water Supply Temperature Schedule Name
  ,                                       !- Cold Water Supply Temperature Schedule Name
  None,                                   !- Drain Water Heat Exchanger Type
  Plant,                                  !- Drain Water Heat Exchanger Destination
  ,                                       !- Drain Water Heat Exchanger U-Factor Times Area {W/K}
  M S1 Apartment Service Water Use 0.1486gpm 140F; !- Water Use Equipment Name 1

WaterUse:Equipment,
  M S1 Apartment Service Water Use 0.1486gpm 140F, !- Name
  General,                                !- End-Use Subcategory
  9.37425007600047e-06,                   !- Peak Flow Rate {m3/s}
  NECB-G-Service Water Heating,           !- Flow Rate Fraction Schedule Name
  Mixed Water At Faucet Temp - 140F,      !- Target Temperature Schedule Name
  ,                                       !- Hot Water Supply Temperature Schedule Name
  ,                                       !- Cold Water Supply Temperature Schedule Name
  DU_BT=Space Function_ST=Dwelling units general_FL=Building Story 2_SCHG 11, !- Zone Name
  Fraction Sensible - 0.2,                !- Sensible Fraction Schedule Name
  Fraction Latent - 0.05;                 !- Latent Fraction Schedule Name

Branch,
  Main Service Water Loop Demand Branch 11, !- Name
  ,                                       !- Pressure Drop Curve Name
  WaterUse:Connections,                   !- Component Object Type 1
  M SE Apartment WUC 0.1486gpm 140F,      !- Component Name 1
  M SE Apartment WUC 0.1486gpm 140F Inlet Water Node, !- Component Inlet Node Name 1
  M SE Apartment WUC 0.1486gpm 140F Outlet Water Node; !- Component Outlet Node Name 1

WaterUse:Connections,
  M SE Apartment WUC 0.1486gpm 140F,      !- Name
  M SE Apartment WUC 0.1486gpm 140F Inlet Water Node, !- Inlet Node Name
  M SE Apartment WUC 0.1486gpm 140F Outlet Water Node, !- Outlet Node Name
  ,                                       !- Supply Water Storage Tank Name
  ,                                       !- Reclamation Water Storage Tank Name
  ,                                       !- Hot Water Supply Temperature Schedule Name
  ,                                       !- Cold Water Supply Temperature Schedule Name
  None,                                   !- Drain Water Heat Exchanger Type
  Plant,                                  !- Drain Water Heat Exchanger Destination
  ,                                       !- Drain Water Heat Exchanger U-Factor Times Area {W/K}
  M SE Apartment Service Water Use 0.1486gpm 140F; !- Water Use Equipment Name 1

WaterUse:Equipment,
  M SE Apartment Service Water Use 0.1486gpm 140F, !- Name
  General,                                !- End-Use Subcategory
  9.37425020817774e-06,                   !- Peak Flow Rate {m3/s}
  NECB-G-Service Water Heating,           !- Flow Rate Fraction Schedule Name
  Mixed Water At Faucet Temp - 140F,      !- Target Temperature Schedule Name
  ,                                       !- Hot Water Supply Temperature Schedule Name
  ,                                       !- Cold Water Supply Temperature Schedule Name
  DU_BT=Space Function_ST=Dwelling units general_FL=Building Story 2_SCHG 9, !- Zone Name
  Fraction Sensible - 0.2,                !- Sensible Fraction Schedule Name
  Fraction Latent - 0.05;                 !- Latent Fraction Schedule Name

Branch,
  Main Service Water Loop Demand Branch 12, !- Name
  ,                                       !- Pressure Drop Curve Name
  WaterUse:Connections,                   !- Component Object Type 1
  M SW Apartment WUC 0.1486gpm 140F,      !- Component Name 1
  M SW Apartment WUC 0.1486gpm 140F Inlet Water Node, !- Component Inlet Node Name 1
  M SW Apartment WUC 0.1486gpm 140F Outlet Water Node; !- Component Outlet Node Name 1

WaterUse:Connections,
  M SW Apartment WUC 0.1486gpm 140F,      !- Name
  M SW Apartment WUC 0.1486gpm 140F Inlet Water Node, !- Inlet Node Name
  M SW Apartment WUC 0.1486gpm 140F Outlet Water Node, !- Outlet Node Name
  ,                                       !- Supply Water Storage Tank Name
  ,                                       !- Reclamation Water Storage Tank Name
  ,                                       !- Hot Water Supply Temperature Schedule Name
  ,                                       !- Cold Water Supply Temperature Schedule Name
  None,                                   !- Drain Water Heat Exchanger Type
  Plant,                                  !- Drain Water Heat Exchanger Destination
  ,                                       !- Drain Water Heat Exchanger U-Factor Times Area {W/K}
  M SW Apartment Service Water Use 0.1486gpm 140F; !- Water Use Equipment Name 1

WaterUse:Equipment,
  M SW Apartment Service Water Use 0.1486gpm 140F, !- Name
  General,                                !- End-Use Subcategory
  9.37425007600047e-06,                   !- Peak Flow Rate {m3/s}
  NECB-G-Service Water Heating,           !- Flow Rate Fraction Schedule Name
  Mixed Water At Faucet Temp - 140F,      !- Target Temperature Schedule Name
  ,                                       !- Hot Water Supply Temperature Schedule Name
  ,                                       !- Cold Water Supply Temperature Schedule Name
  DU_BT=Space Function_ST=Dwelling units general_FL=Building Story 2_SCHG 10, !- Zone Name
  Fraction Sensible - 0.2,                !- Sensible Fraction Schedule Name
  Fraction Latent - 0.05;                 !- Latent Fraction Schedule Name

Branch,
  Main Service Water Loop Demand Branch 13, !- Name
  ,                                       !- Pressure Drop Curve Name
  WaterUse:Connections,                   !- Component Object Type 1
  Office WUC 0.1486gpm 140F,              !- Component Name 1
  Office WUC 0.1486gpm 140F Inlet Water Node, !- Component Inlet Node Name 1
  Office WUC 0.1486gpm 140F Outlet Water Node; !- Component Outlet Node Name 1

WaterUse:Connections,
  Office WUC 0.1486gpm 140F,              !- Name
  Office WUC 0.1486gpm 140F Inlet Water Node, !- Inlet Node Name
  Office WUC 0.1486gpm 140F Outlet Water Node, !- Outlet Node Name
  ,                                       !- Supply Water Storage Tank Name
  ,                                       !- Reclamation Water Storage Tank Name
  ,                                       !- Hot Water Supply Temperature Schedule Name
  ,                                       !- Cold Water Supply Temperature Schedule Name
  None,                                   !- Drain Water Heat Exchanger Type
  Plant,                                  !- Drain Water Heat Exchanger Destination
  ,                                       !- Drain Water Heat Exchanger U-Factor Times Area {W/K}
  Office Service Water Use 0.1486gpm 140F; !- Water Use Equipment Name 1

WaterUse:Equipment,
  Office Service Water Use 0.1486gpm 140F, !- Name
  General,                                !- End-Use Subcategory
  9.37425007600047e-06,                   !- Peak Flow Rate {m3/s}
  NECB-G-Service Water Heating,           !- Flow Rate Fraction Schedule Name
  Mixed Water At Faucet Temp - 140F,      !- Target Temperature Schedule Name
  ,                                       !- Hot Water Supply Temperature Schedule Name
  ,                                       !- Cold Water Supply Temperature Schedule Name
  DU_BT=Space Function_ST=Dwelling units general_FL=Building Story 1_SCHG 7, !- Zone Name
  Fraction Sensible - 0.2,                !- Sensible Fraction Schedule Name
  Fraction Latent - 0.05;                 !- Latent Fraction Schedule Name

Branch,
  Main Service Water Loop Demand Branch 14, !- Name
  ,                                       !- Pressure Drop Curve Name
  WaterUse:Connections,                   !- Component Object Type 1
  T N1 Apartment WUC 0.1486gpm 140F,      !- Component Name 1
  T N1 Apartment WUC 0.1486gpm 140F Inlet Water Node, !- Component Inlet Node Name 1
  T N1 Apartment WUC 0.1486gpm 140F Outlet Water Node; !- Component Outlet Node Name 1

WaterUse:Connections,
  T N1 Apartment WUC 0.1486gpm 140F,      !- Name
  T N1 Apartment WUC 0.1486gpm 140F Inlet Water Node, !- Inlet Node Name
  T N1 Apartment WUC 0.1486gpm 140F Outlet Water Node, !- Outlet Node Name
  ,                                       !- Supply Water Storage Tank Name
  ,                                       !- Reclamation Water Storage Tank Name
  ,                                       !- Hot Water Supply Temperature Schedule Name
  ,                                       !- Cold Water Supply Temperature Schedule Name
  None,                                   !- Drain Water Heat Exchanger Type
  Plant,                                  !- Drain Water Heat Exchanger Destination
  ,                                       !- Drain Water Heat Exchanger U-Factor Times Area {W/K}
  T N1 Apartment Service Water Use 0.1486gpm 140F; !- Water Use Equipment Name 1

WaterUse:Equipment,
  T N1 Apartment Service Water Use 0.1486gpm 140F, !- Name
  General,                                !- End-Use Subcategory
  9.37425007600047e-06,                   !- Peak Flow Rate {m3/s}
  NECB-G-Service Water Heating,           !- Flow Rate Fraction Schedule Name
  Mixed Water At Faucet Temp - 140F,      !- Target Temperature Schedule Name
  ,                                       !- Hot Water Supply Temperature Schedule Name
  ,                                       !- Cold Water Supply Temperature Schedule Name
  DU_BT=Space Function_ST=Dwelling units general_FL=Building Story 3_SCHG 11, !- Zone Name
  Fraction Sensible - 0.2,                !- Sensible Fraction Schedule Name
  Fraction Latent - 0.05;                 !- Latent Fraction Schedule Name

Branch,
  Main Service Water Loop Demand Branch 15, !- Name
  ,                                       !- Pressure Drop Curve Name
  WaterUse:Connections,                   !- Component Object Type 1
  T NE Apartment WUC 0.1486gpm 140F,      !- Component Name 1
  T NE Apartment WUC 0.1486gpm 140F Inlet Water Node, !- Component Inlet Node Name 1
  T NE Apartment WUC 0.1486gpm 140F Outlet Water Node; !- Component Outlet Node Name 1

WaterUse:Connections,
  T NE Apartment WUC 0.1486gpm 140F,      !- Name
  T NE Apartment WUC 0.1486gpm 140F Inlet Water Node, !- Inlet Node Name
  T NE Apartment WUC 0.1486gpm 140F Outlet Water Node, !- Outlet Node Name
  ,                                       !- Supply Water Storage Tank Name
  ,                                       !- Reclamation Water Storage Tank Name
  ,                                       !- Hot Water Supply Temperature Schedule Name
  ,                                       !- Cold Water Supply Temperature Schedule Name
  None,                                   !- Drain Water Heat Exchanger Type
  Plant,                                  !- Drain Water Heat Exchanger Destination
  ,                                       !- Drain Water Heat Exchanger U-Factor Times Area {W/K}
  T NE Apartment Service Water Use 0.1486gpm 140F; !- Water Use Equipment Name 1

WaterUse:Equipment,
  T NE Apartment Service Water Use 0.1486gpm 140F, !- Name
  General,                                !- End-Use Subcategory
  9.37425007600047e-06,                   !- Peak Flow Rate {m3/s}
  NECB-G-Service Water Heating,           !- Flow Rate Fraction Schedule Name
  Mixed Water At Faucet Temp - 140F,      !- Target Temperature Schedule Name
  ,                                       !- Hot Water Supply Temperature Schedule Name
  ,                                       !- Cold Water Supply Temperature Schedule Name
  DU_BT=Space Function_ST=Dwelling units general_FL=Building Story 3_SCHG 9, !- Zone Name
  Fraction Sensible - 0.2,                !- Sensible Fraction Schedule Name
  Fraction Latent - 0.05;                 !- Latent Fraction Schedule Name

Branch,
  Main Service Water Loop Demand Branch 16, !- Name
  ,                                       !- Pressure Drop Curve Name
  WaterUse:Connections,                   !- Component Object Type 1
  T NW Apartment WUC 0.1486gpm 140F,      !- Component Name 1
  T NW Apartment WUC 0.1486gpm 140F Inlet Water Node, !- Component Inlet Node Name 1
  T NW Apartment WUC 0.1486gpm 140F Outlet Water Node; !- Component Outlet Node Name 1

WaterUse:Connections,
  T NW Apartment WUC 0.1486gpm 140F,      !- Name
  T NW Apartment WUC 0.1486gpm 140F Inlet Water Node, !- Inlet Node Name
  T NW Apartment WUC 0.1486gpm 140F Outlet Water Node, !- Outlet Node Name
  ,                                       !- Supply Water Storage Tank Name
  ,                                       !- Reclamation Water Storage Tank Name
  ,                                       !- Hot Water Supply Temperature Schedule Name
  ,                                       !- Cold Water Supply Temperature Schedule Name
  None,                                   !- Drain Water Heat Exchanger Type
  Plant,                                  !- Drain Water Heat Exchanger Destination
  ,                                       !- Drain Water Heat Exchanger U-Factor Times Area {W/K}
  T NW Apartment Service Water Use 0.1486gpm 140F; !- Water Use Equipment Name 1

WaterUse:Equipment,
  T NW Apartment Service Water Use 0.1486gpm 140F, !- Name
  General,                                !- End-Use Subcategory
  9.37425007600047e-06,                   !- Peak Flow Rate {m3/s}
  NECB-G-Service Water Heating,           !- Flow Rate Fraction Schedule Name
  Mixed Water At Faucet Temp - 140F,      !- Target Temperature Schedule Name
  ,                                       !- Hot Water Supply Temperature Schedule Name
  ,                                       !- Cold Water Supply Temperature Schedule Name
  DU_BT=Space Function_ST=Dwelling units general_FL=Building Story 3_SCHG 12, !- Zone Name
  Fraction Sensible - 0.2,                !- Sensible Fraction Schedule Name
  Fraction Latent - 0.05;                 !- Latent Fraction Schedule Name

Branch,
  Main Service Water Loop Demand Branch 17, !- Name
  ,                                       !- Pressure Drop Curve Name
  WaterUse:Connections,                   !- Component Object Type 1
  T S1 Apartment WUC 0.1486gpm 140F,      !- Component Name 1
  T S1 Apartment WUC 0.1486gpm 140F Inlet Water Node, !- Component Inlet Node Name 1
  T S1 Apartment WUC 0.1486gpm 140F Outlet Water Node; !- Component Outlet Node Name 1

WaterUse:Connections,
  T S1 Apartment WUC 0.1486gpm 140F,      !- Name
  T S1 Apartment WUC 0.1486gpm 140F Inlet Water Node, !- Inlet Node Name
  T S1 Apartment WUC 0.1486gpm 140F Outlet Water Node, !- Outlet Node Name
  ,                                       !- Supply Water Storage Tank Name
  ,                                       !- Reclamation Water Storage Tank Name
  ,                                       !- Hot Water Supply Temperature Schedule Name
  ,                                       !- Cold Water Supply Temperature Schedule Name
  None,                                   !- Drain Water Heat Exchanger Type
  Plant,                                  !- Drain Water Heat Exchanger Destination
  ,                                       !- Drain Water Heat Exchanger U-Factor Times Area {W/K}
  T S1 Apartment Service Water Use 0.1486gpm 140F; !- Water Use Equipment Name 1

WaterUse:Equipment,
  T S1 Apartment Service Water Use 0.1486gpm 140F, !- Name
  General,                                !- End-Use Subcategory
  9.37425007600047e-06,                   !- Peak Flow Rate {m3/s}
  NECB-G-Service Water Heating,           !- Flow Rate Fraction Schedule Name
  Mixed Water At Faucet Temp - 140F,      !- Target Temperature Schedule Name
  ,                                       !- Hot Water Supply Temperature Schedule Name
  ,                                       !- Cold Water Supply Temperature Schedule Name
  DU_BT=Space Function_ST=Dwelling units general_FL=Building Story 3_SCHG, !- Zone Name
  Fraction Sensible - 0.2,                !- Sensible Fraction Schedule Name
  Fraction Latent - 0.05;                 !- Latent Fraction Schedule Name

Branch,
  Main Service Water Loop Demand Branch 18, !- Name
  ,                                       !- Pressure Drop Curve Name
  WaterUse:Connections,                   !- Component Object Type 1
  T SE Apartment WUC 0.1486gpm 140F,      !- Component Name 1
  T SE Apartment WUC 0.1486gpm 140F Inlet Water Node, !- Component Inlet Node Name 1
  T SE Apartment WUC 0.1486gpm 140F Outlet Water Node; !- Component Outlet Node Name 1

WaterUse:Connections,
  T SE Apartment WUC 0.1486gpm 140F,      !- Name
  T SE Apartment WUC 0.1486gpm 140F Inlet Water Node, !- Inlet Node Name
  T SE Apartment WUC 0.1486gpm 140F Outlet Water Node, !- Outlet Node Name
  ,                                       !- Supply Water Storage Tank Name
  ,                                       !- Reclamation Water Storage Tank Name
  ,                                       !- Hot Water Supply Temperature Schedule Name
  ,                                       !- Cold Water Supply Temperature Schedule Name
  None,                                   !- Drain Water Heat Exchanger Type
  Plant,                                  !- Drain Water Heat Exchanger Destination
  ,                                       !- Drain Water Heat Exchanger U-Factor Times Area {W/K}
  T SE Apartment Service Water Use 0.1486gpm 140F; !- Water Use Equipment Name 1

WaterUse:Equipment,
  T SE Apartment Service Water Use 0.1486gpm 140F, !- Name
  General,                                !- End-Use Subcategory
  9.37425007600047e-06,                   !- Peak Flow Rate {m3/s}
  NECB-G-Service Water Heating,           !- Flow Rate Fraction Schedule Name
  Mixed Water At Faucet Temp - 140F,      !- Target Temperature Schedule Name
  ,                                       !- Hot Water Supply Temperature Schedule Name
  ,                                       !- Cold Water Supply Temperature Schedule Name
  DU_BT=Space Function_ST=Dwelling units general_FL=Building Story 3_SCHG 8, !- Zone Name
  Fraction Sensible - 0.2,                !- Sensible Fraction Schedule Name
  Fraction Latent - 0.05;                 !- Latent Fraction Schedule Name

Branch,
  Main Service Water Loop Demand Branch 19, !- Name
  ,                                       !- Pressure Drop Curve Name
  WaterUse:Connections,                   !- Component Object Type 1
  T SW Apartment WUC 0.1486gpm 140F,      !- Component Name 1
  T SW Apartment WUC 0.1486gpm 140F Inlet Water Node, !- Component Inlet Node Name 1
  T SW Apartment WUC 0.1486gpm 140F Outlet Water Node; !- Component Outlet Node Name 1

WaterUse:Connections,
  T SW Apartment WUC 0.1486gpm 140F,      !- Name
  T SW Apartment WUC 0.1486gpm 140F Inlet Water Node, !- Inlet Node Name
  T SW Apartment WUC 0.1486gpm 140F Outlet Water Node, !- Outlet Node Name
  ,                                       !- Supply Water Storage Tank Name
  ,                                       !- Reclamation Water Storage Tank Name
  ,                                       !- Hot Water Supply Temperature Schedule Name
  ,                                       !- Cold Water Supply Temperature Schedule Name
  None,                                   !- Drain Water Heat Exchanger Type
  Plant,                                  !- Drain Water Heat Exchanger Destination
  ,                                       !- Drain Water Heat Exchanger U-Factor Times Area {W/K}
  T SW Apartment Service Water Use 0.1486gpm 140F; !- Water Use Equipment Name 1

WaterUse:Equipment,
  T SW Apartment Service Water Use 0.1486gpm 140F, !- Name
  General,                                !- End-Use Subcategory
  9.37425007600047e-06,                   !- Peak Flow Rate {m3/s}
  NECB-G-Service Water Heating,           !- Flow Rate Fraction Schedule Name
  Mixed Water At Faucet Temp - 140F,      !- Target Temperature Schedule Name
  ,                                       !- Hot Water Supply Temperature Schedule Name
  ,                                       !- Cold Water Supply Temperature Schedule Name
  DU_BT=Space Function_ST=Dwelling units general_FL=Building Story 3_SCHG 10, !- Zone Name
  Fraction Sensible - 0.2,                !- Sensible Fraction Schedule Name
  Fraction Latent - 0.05;                 !- Latent Fraction Schedule Name

Branch,
  Main Service Water Loop Demand Bypass Branch, !- Name
  ,                                       !- Pressure Drop Curve Name
  Pipe:Adiabatic,                         !- Component Object Type 1
  Main Service Water Loop Demand Bypass Pipe, !- Component Name 1
  Main Service Water Loop Demand Bypass Pipe Inlet Node, !- Component Inlet Node Name 1
  Main Service Water Loop Demand Bypass Pipe Outlet Node; !- Component Outlet Node Name 1

Pipe:Adiabatic,
  Main Service Water Loop Demand Bypass Pipe, !- Name
  Main Service Water Loop Demand Bypass Pipe Inlet Node, !- Inlet Node Name
  Main Service Water Loop Demand Bypass Pipe Outlet Node; !- Outlet Node Name

Branch,
  Main Service Water Loop Demand Outlet Branch, !- Name
  ,                                       !- Pressure Drop Curve Name
  Pipe:Adiabatic,                         !- Component Object Type 1
  Pipe Adiabatic 4,                       !- Component Name 1
  Pipe Adiabatic 4 Inlet Water Node,      !- Component Inlet Node Name 1
  Main Service Water Loop Demand Outlet Node; !- Component Outlet Node Name 1

Pipe:Adiabatic,
  Pipe Adiabatic 4,                       !- Name
  Pipe Adiabatic 4 Inlet Water Node,      !- Inlet Node Name
  Main Service Water Loop Demand Outlet Node; !- Outlet Node Name

PlantEquipmentOperationSchemes,
  Main Service Water Loop Operation Schemes, !- Name
  PlantEquipmentOperation:HeatingLoad,    !- Control Scheme Object Type 1
  Main Service Water Loop Heating Operation Scheme, !- Control Scheme Name 1
  Always On Discrete;                     !- Control Scheme Schedule Name 1

PlantEquipmentOperation:HeatingLoad,
  Main Service Water Loop Heating Operation Scheme, !- Name
  0,                                      !- Load Range Lower Limit 1 {W}
  1000000000,                             !- Load Range Upper Limit 1 {W}
  Main Service Water Loop Heating Equipment List; !- Range Equipment List Name 1

PlantEquipmentList,
  Main Service Water Loop Heating Equipment List, !- Name
  WaterHeater:Mixed,                      !- Equipment Object Type 1
  160gal Electricity Water Heater - 108kBtu/hr 1 Therm Eff; !- Equipment Name 1

OutputControl:ReportingTolerances,
  1,                                      !- Tolerance for Time Heating Setpoint Not Met {deltaC}
  1;                                      !- Tolerance for Time Cooling Setpoint Not Met {deltaC}

Site:Location,
  Calgary Intl AP_AB_CAN,                 !- Name
  51.114,                                 !- Latitude {deg}
  -114.02,                                !- Longitude {deg}
  -7,                                     !- Time Zone {hr}
  1084.1;                                 !- Elevation {m}

Site:GroundTemperature:BuildingSurface,
  19.527,                                 !- January Ground Temperature {C}
  19.502,                                 !- February Ground Temperature {C}
  19.536,                                 !- March Ground Temperature {C}
  19.598,                                 !- April Ground Temperature {C}
  20.002,                                 !- May Ground Temperature {C}
  21.64,                                  !- June Ground Temperature {C}
  22.225,                                 !- July Ground Temperature {C}
  22.375,                                 !- August Ground Temperature {C}
  21.449,                                 !- September Ground Temperature {C}
  20.121,                                 !- October Ground Temperature {C}
  19.802,                                 !- November Ground Temperature {C}
  19.633;                                 !- December Ground Temperature {C}

Site:GroundTemperature:Deep,
  1.8,                                    !- January Deep Ground Temperature {C}
  0,                                      !- February Deep Ground Temperature {C}
  -0.3,                                   !- March Deep Ground Temperature {C}
  0.2,                                    !- April Deep Ground Temperature {C}
  2.8,                                    !- May Deep Ground Temperature {C}
  5.6,                                    !- June Deep Ground Temperature {C}
  8.1,                                    !- July Deep Ground Temperature {C}
  9.9,                                    !- August Deep Ground Temperature {C}
  10.3,                                   !- September Deep Ground Temperature {C}
  9.3,                                    !- October Deep Ground Temperature {C}
  7.1,                                    !- November Deep Ground Temperature {C}
  4.4;                                    !- December Deep Ground Temperature {C}

Site:GroundTemperature:FCfactorMethod,
  5.5,                                    !- January Ground Temperature {C}
  -2,                                     !- February Ground Temperature {C}
  -4.4,                                   !- March Ground Temperature {C}
  -6.3,                                   !- April Ground Temperature {C}
  -6.3,                                   !- May Ground Temperature {C}
  -0.3,                                   !- June Ground Temperature {C}
  4.7,                                    !- July Ground Temperature {C}
  10.2,                                   !- August Ground Temperature {C}
  13.8,                                   !- September Ground Temperature {C}
  17,                                     !- October Ground Temperature {C}
  16.6,                                   !- November Ground Temperature {C}
  11.5;                                   !- December Ground Temperature {C}

Site:GroundTemperature:Shallow,
  -4.6,                                   !- January Surface Ground Temperature {C}
  -5.5,                                   !- February Surface Ground Temperature {C}
  -3.9,                                   !- March Surface Ground Temperature {C}
  -1.2,                                   !- April Surface Ground Temperature {C}
  5.6,                                    !- May Surface Ground Temperature {C}
  10.9,                                   !- June Surface Ground Temperature {C}
  14.5,                                   !- July Surface Ground Temperature {C}
  15.6,                                   !- August Surface Ground Temperature {C}
  13.7,                                   !- September Surface Ground Temperature {C}
  9.6,                                    !- October Surface Ground Temperature {C}
  4.1,                                    !- November Surface Ground Temperature {C}
  -1;                                     !- December Surface Ground Temperature {C}

Site:WaterMainsTemperature,
  Correlation,                            !- Calculation Method
  ,                                       !- Temperature Schedule Name
  5,                                      !- Annual Average Outdoor Air Temperature {C}
  23.3;                                   !- Maximum Difference In Monthly Average Outdoor Air Temperatures {deltaC}

SizingPeriod:DesignDay,
  Calgary Intl AP Ann Clg .4% Condns DB=>MWB, !- Name
  7,                                      !- Month
  21,                                     !- Day of Month
  SummerDesignDay,                        !- Day Type
  28.5,                                   !- Maximum Dry-Bulb Temperature {C}
  12.1,                                   !- Daily Dry-Bulb Temperature Range {deltaC}
  DefaultMultipliers,                     !- Dry-Bulb Temperature Range Modifier Type
  ,                                       !- Dry-Bulb Temperature Range Modifier Day Schedule Name
  Wetbulb,                                !- Humidity Condition Type
  16.1,                                   !- Wetbulb or DewPoint at Maximum Dry-Bulb {C}
  ,                                       !- Humidity Condition Day Schedule Name
  ,                                       !- Humidity Ratio at Maximum Dry-Bulb {kgWater/kgDryAir}
  ,                                       !- Enthalpy at Maximum Dry-Bulb {J/kg}
  ,                                       !- Daily Wet-Bulb Temperature Range {deltaC}
  88961,                                  !- Barometric Pressure {Pa}
  4.5,                                    !- Wind Speed {m/s}
  160,                                    !- Wind Direction {deg}
  No,                                     !- Rain Indicator
  No,                                     !- Snow Indicator
  No,                                     !- Daylight Saving Time Indicator
  ASHRAETau,                              !- Solar Model Indicator
  ,                                       !- Beam Solar Day Schedule Name
  ,                                       !- Diffuse Solar Day Schedule Name
  0.339,                                  !- ASHRAE Clear Sky Optical Depth for Beam Irradiance (taub) {dimensionless}
  2.421,                                  !- ASHRAE Clear Sky Optical Depth for Diffuse Irradiance (taud) {dimensionless}
  ,                                       !- Sky Clearness
  ,                                       !- Maximum Number Warmup Days
  FullResetAtBeginEnvironment;            !- Begin Environment Reset Mode

SizingPeriod:DesignDay,
  Calgary Intl AP Ann Clg .4% Condns WB=>MDB, !- Name
  7,                                      !- Month
  21,                                     !- Day of Month
  SummerDesignDay,                        !- Day Type
  25.3,                                   !- Maximum Dry-Bulb Temperature {C}
  12.1,                                   !- Daily Dry-Bulb Temperature Range {deltaC}
  DefaultMultipliers,                     !- Dry-Bulb Temperature Range Modifier Type
  ,                                       !- Dry-Bulb Temperature Range Modifier Day Schedule Name
  Wetbulb,                                !- Humidity Condition Type
  17.8,                                   !- Wetbulb or DewPoint at Maximum Dry-Bulb {C}
  ,                                       !- Humidity Condition Day Schedule Name
  ,                                       !- Humidity Ratio at Maximum Dry-Bulb {kgWater/kgDryAir}
  ,                                       !- Enthalpy at Maximum Dry-Bulb {J/kg}
  ,                                       !- Daily Wet-Bulb Temperature Range {deltaC}
  88961,                                  !- Barometric Pressure {Pa}
  4.5,                                    !- Wind Speed {m/s}
  160,                                    !- Wind Direction {deg}
  No,                                     !- Rain Indicator
  No,                                     !- Snow Indicator
  No,                                     !- Daylight Saving Time Indicator
  ASHRAETau,                              !- Solar Model Indicator
  ,                                       !- Beam Solar Day Schedule Name
  ,                                       !- Diffuse Solar Day Schedule Name
  0.339,                                  !- ASHRAE Clear Sky Optical Depth for Beam Irradiance (taub) {dimensionless}
  2.421,                                  !- ASHRAE Clear Sky Optical Depth for Diffuse Irradiance (taud) {dimensionless}
  ,                                       !- Sky Clearness
  ,                                       !- Maximum Number Warmup Days
  FullResetAtBeginEnvironment;            !- Begin Environment Reset Mode

SizingPeriod:DesignDay,
  Calgary Intl AP Ann Htg 99.6% Condns DB, !- Name
  1,                                      !- Month
  21,                                     !- Day of Month
  WinterDesignDay,                        !- Day Type
  -28.5,                                  !- Maximum Dry-Bulb Temperature {C}
  0,                                      !- Daily Dry-Bulb Temperature Range {deltaC}
  DefaultMultipliers,                     !- Dry-Bulb Temperature Range Modifier Type
  ,                                       !- Dry-Bulb Temperature Range Modifier Day Schedule Name
  Wetbulb,                                !- Humidity Condition Type
  -28.5,                                  !- Wetbulb or DewPoint at Maximum Dry-Bulb {C}
  ,                                       !- Humidity Condition Day Schedule Name
  ,                                       !- Humidity Ratio at Maximum Dry-Bulb {kgWater/kgDryAir}
  ,                                       !- Enthalpy at Maximum Dry-Bulb {J/kg}
  ,                                       !- Daily Wet-Bulb Temperature Range {deltaC}
  88961,                                  !- Barometric Pressure {Pa}
  2.9,                                    !- Wind Speed {m/s}
  200,                                    !- Wind Direction {deg}
  No,                                     !- Rain Indicator
  No,                                     !- Snow Indicator
  No,                                     !- Daylight Saving Time Indicator
  ASHRAEClearSky,                         !- Solar Model Indicator
  ,                                       !- Beam Solar Day Schedule Name
  ,                                       !- Diffuse Solar Day Schedule Name
  ,                                       !- ASHRAE Clear Sky Optical Depth for Beam Irradiance (taub) {dimensionless}
  ,                                       !- ASHRAE Clear Sky Optical Depth for Diffuse Irradiance (taud) {dimensionless}
  0,                                      !- Sky Clearness
  ,                                       !- Maximum Number Warmup Days
  FullResetAtBeginEnvironment;            !- Begin Environment Reset Mode

Foundation:Kiva,
  Bldg Kiva Foundation,                   !- Name
  ,                                       !- Initial Indoor Air Temperature {C}
  ,                                       !- Interior Horizontal Insulation Material Name
  ,                                       !- Interior Horizontal Insulation Depth {m}
  ,                                       !- Interior Horizontal Insulation Width {m}
  ,                                       !- Interior Vertical Insulation Material Name
  ,                                       !- Interior Vertical Insulation Depth {m}
  ,                                       !- Exterior Horizontal Insulation Material Name
  ,                                       !- Exterior Horizontal Insulation Depth {m}
  ,                                       !- Exterior Horizontal Insulation Width {m}
  ,                                       !- Exterior Vertical Insulation Material Name
  ,                                       !- Exterior Vertical Insulation Depth {m}
  0,                                      !- Wall Height Above Grade {m}
  0;                                      !- Wall Depth Below Slab {m}

Foundation:Kiva:Settings,
  1.73,                                   !- Soil Conductivity {W/m-K}
  1842,                                   !- Soil Density {kg/m3}
  419,                                    !- Soil Specific Heat {J/kg-K}
  0.9,                                    !- Ground Solar Absorptivity {dimensionless}
  0.9,                                    !- Ground Thermal Absorptivity {dimensionless}
  0.03,                                   !- Ground Surface Roughness {m}
  40,                                     !- Far-Field Width {m}
  Autoselect,                             !- Deep-Ground Boundary Condition
  Autocalculate,                          !- Deep-Ground Depth {m}
  0.02,                                   !- Minimum Cell Dimension {m}
  1.5,                                    !- Maximum Cell Growth Coefficient {dimensionless}
  Hourly;                                 !- Simulation Timestep

Curve:Biquadratic,
  Curve Biquadratic 1,                    !- Name
  0.8406506803,                           !- Coefficient1 Constant
  -8.3433e-05,                            !- Coefficient2 x
  -6.83822e-05,                           !- Coefficient3 x**2
  0.0234244981,                           !- Coefficient4 y
  0.000176366,                            !- Coefficient5 y**2
  -9.01777e-05,                           !- Coefficient6 x*y
  17.78,                                  !- Minimum Value of x {BasedOnField A2}
  23.33,                                  !- Maximum Value of x {BasedOnField A2}
  -30.56,                                 !- Minimum Value of y {BasedOnField A3}
  17.22;                                  !- Maximum Value of y {BasedOnField A3}

Curve:Biquadratic,
  Curve Biquadratic 10,                   !- Name
  0.342414409,                            !- Coefficient1 Constant
  0.034885008,                            !- Coefficient2 x
  -0.0006237,                             !- Coefficient3 x**2
  0.004977216,                            !- Coefficient4 y
  0.000437951,                            !- Coefficient5 y**2
  -0.000728028,                           !- Coefficient6 x*y
  17,                                     !- Minimum Value of x {BasedOnField A2}
  22,                                     !- Maximum Value of x {BasedOnField A2}
  13,                                     !- Minimum Value of y {BasedOnField A3}
  46;                                     !- Maximum Value of y {BasedOnField A3}

Curve:Biquadratic,
  Curve Biquadratic 11,                   !- Name
  0.942587793,                            !- Coefficient1 Constant
  0.009543347,                            !- Coefficient2 x
  0.00068377,                             !- Coefficient3 x**2
  -0.011042676,                           !- Coefficient4 y
  5.249e-06,                              !- Coefficient5 y**2
  -9.72e-06,                              !- Coefficient6 x*y
  17,                                     !- Minimum Value of x {BasedOnField A2}
  22,                                     !- Maximum Value of x {BasedOnField A2}
  13,                                     !- Minimum Value of y {BasedOnField A3}
  46;                                     !- Maximum Value of y {BasedOnField A3}

Curve:Biquadratic,
  Curve Biquadratic 12,                   !- Name
  0.342414409,                            !- Coefficient1 Constant
  0.034885008,                            !- Coefficient2 x
  -0.0006237,                             !- Coefficient3 x**2
  0.004977216,                            !- Coefficient4 y
  0.000437951,                            !- Coefficient5 y**2
  -0.000728028,                           !- Coefficient6 x*y
  17,                                     !- Minimum Value of x {BasedOnField A2}
  22,                                     !- Maximum Value of x {BasedOnField A2}
  13,                                     !- Minimum Value of y {BasedOnField A3}
  46;                                     !- Maximum Value of y {BasedOnField A3}

Curve:Biquadratic,
  Curve Biquadratic 13,                   !- Name
  0.942587793,                            !- Coefficient1 Constant
  0.009543347,                            !- Coefficient2 x
  0.00068377,                             !- Coefficient3 x**2
  -0.011042676,                           !- Coefficient4 y
  5.249e-06,                              !- Coefficient5 y**2
  -9.72e-06,                              !- Coefficient6 x*y
  17,                                     !- Minimum Value of x {BasedOnField A2}
  22,                                     !- Maximum Value of x {BasedOnField A2}
  13,                                     !- Minimum Value of y {BasedOnField A3}
  46;                                     !- Maximum Value of y {BasedOnField A3}

Curve:Biquadratic,
  Curve Biquadratic 14,                   !- Name
  0.342414409,                            !- Coefficient1 Constant
  0.034885008,                            !- Coefficient2 x
  -0.0006237,                             !- Coefficient3 x**2
  0.004977216,                            !- Coefficient4 y
  0.000437951,                            !- Coefficient5 y**2
  -0.000728028,                           !- Coefficient6 x*y
  17,                                     !- Minimum Value of x {BasedOnField A2}
  22,                                     !- Maximum Value of x {BasedOnField A2}
  13,                                     !- Minimum Value of y {BasedOnField A3}
  46;                                     !- Maximum Value of y {BasedOnField A3}

Curve:Biquadratic,
  Curve Biquadratic 15,                   !- Name
  0.942587793,                            !- Coefficient1 Constant
  0.009543347,                            !- Coefficient2 x
  0.00068377,                             !- Coefficient3 x**2
  -0.011042676,                           !- Coefficient4 y
  5.249e-06,                              !- Coefficient5 y**2
  -9.72e-06,                              !- Coefficient6 x*y
  17,                                     !- Minimum Value of x {BasedOnField A2}
  22,                                     !- Maximum Value of x {BasedOnField A2}
  13,                                     !- Minimum Value of y {BasedOnField A3}
  46;                                     !- Maximum Value of y {BasedOnField A3}

Curve:Biquadratic,
  Curve Biquadratic 16,                   !- Name
  0.342414409,                            !- Coefficient1 Constant
  0.034885008,                            !- Coefficient2 x
  -0.0006237,                             !- Coefficient3 x**2
  0.004977216,                            !- Coefficient4 y
  0.000437951,                            !- Coefficient5 y**2
  -0.000728028,                           !- Coefficient6 x*y
  17,                                     !- Minimum Value of x {BasedOnField A2}
  22,                                     !- Maximum Value of x {BasedOnField A2}
  13,                                     !- Minimum Value of y {BasedOnField A3}
  46;                                     !- Maximum Value of y {BasedOnField A3}

Curve:Biquadratic,
  Curve Biquadratic 17,                   !- Name
  0.942587793,                            !- Coefficient1 Constant
  0.009543347,                            !- Coefficient2 x
  0.00068377,                             !- Coefficient3 x**2
  -0.011042676,                           !- Coefficient4 y
  5.249e-06,                              !- Coefficient5 y**2
  -9.72e-06,                              !- Coefficient6 x*y
  17,                                     !- Minimum Value of x {BasedOnField A2}
  22,                                     !- Maximum Value of x {BasedOnField A2}
  13,                                     !- Minimum Value of y {BasedOnField A3}
  46;                                     !- Maximum Value of y {BasedOnField A3}

Curve:Biquadratic,
  Curve Biquadratic 18,                   !- Name
  0.342414409,                            !- Coefficient1 Constant
  0.034885008,                            !- Coefficient2 x
  -0.0006237,                             !- Coefficient3 x**2
  0.004977216,                            !- Coefficient4 y
  0.000437951,                            !- Coefficient5 y**2
  -0.000728028,                           !- Coefficient6 x*y
  17,                                     !- Minimum Value of x {BasedOnField A2}
  22,                                     !- Maximum Value of x {BasedOnField A2}
  13,                                     !- Minimum Value of y {BasedOnField A3}
  46;                                     !- Maximum Value of y {BasedOnField A3}

Curve:Biquadratic,
  Curve Biquadratic 19,                   !- Name
  0.942587793,                            !- Coefficient1 Constant
  0.009543347,                            !- Coefficient2 x
  0.00068377,                             !- Coefficient3 x**2
  -0.011042676,                           !- Coefficient4 y
  5.249e-06,                              !- Coefficient5 y**2
  -9.72e-06,                              !- Coefficient6 x*y
  17,                                     !- Minimum Value of x {BasedOnField A2}
  22,                                     !- Maximum Value of x {BasedOnField A2}
  13,                                     !- Minimum Value of y {BasedOnField A3}
  46;                                     !- Maximum Value of y {BasedOnField A3}

Curve:Biquadratic,
  Curve Biquadratic 2,                    !- Name
  0.9172082199,                           !- Coefficient1 Constant
  -0.0116036212,                          !- Coefficient2 x
  0.0010074804,                           !- Coefficient3 x**2
  -0.0089288423,                          !- Coefficient4 y
  0.0009349133,                           !- Coefficient5 y**2
  -0.0009326244,                          !- Coefficient6 x*y
  17.78,                                  !- Minimum Value of x {BasedOnField A2}
  23.33,                                  !- Maximum Value of x {BasedOnField A2}
  -30.56,                                 !- Minimum Value of y {BasedOnField A3}
  17.22;                                  !- Maximum Value of y {BasedOnField A3}

Curve:Biquadratic,
  Curve Biquadratic 20,                   !- Name
  0.342414409,                            !- Coefficient1 Constant
  0.034885008,                            !- Coefficient2 x
  -0.0006237,                             !- Coefficient3 x**2
  0.004977216,                            !- Coefficient4 y
  0.000437951,                            !- Coefficient5 y**2
  -0.000728028,                           !- Coefficient6 x*y
  17,                                     !- Minimum Value of x {BasedOnField A2}
  22,                                     !- Maximum Value of x {BasedOnField A2}
  13,                                     !- Minimum Value of y {BasedOnField A3}
  46;                                     !- Maximum Value of y {BasedOnField A3}

Curve:Biquadratic,
  Curve Biquadratic 21,                   !- Name
  0.942587793,                            !- Coefficient1 Constant
  0.009543347,                            !- Coefficient2 x
  0.00068377,                             !- Coefficient3 x**2
  -0.011042676,                           !- Coefficient4 y
  5.249e-06,                              !- Coefficient5 y**2
  -9.72e-06,                              !- Coefficient6 x*y
  17,                                     !- Minimum Value of x {BasedOnField A2}
  22,                                     !- Maximum Value of x {BasedOnField A2}
  13,                                     !- Minimum Value of y {BasedOnField A3}
  46;                                     !- Maximum Value of y {BasedOnField A3}

Curve:Biquadratic,
  Curve Biquadratic 22,                   !- Name
  0.342414409,                            !- Coefficient1 Constant
  0.034885008,                            !- Coefficient2 x
  -0.0006237,                             !- Coefficient3 x**2
  0.004977216,                            !- Coefficient4 y
  0.000437951,                            !- Coefficient5 y**2
  -0.000728028,                           !- Coefficient6 x*y
  17,                                     !- Minimum Value of x {BasedOnField A2}
  22,                                     !- Maximum Value of x {BasedOnField A2}
  13,                                     !- Minimum Value of y {BasedOnField A3}
  46;                                     !- Maximum Value of y {BasedOnField A3}

Curve:Biquadratic,
  Curve Biquadratic 23,                   !- Name
  0.942587793,                            !- Coefficient1 Constant
  0.009543347,                            !- Coefficient2 x
  0.00068377,                             !- Coefficient3 x**2
  -0.011042676,                           !- Coefficient4 y
  5.249e-06,                              !- Coefficient5 y**2
  -9.72e-06,                              !- Coefficient6 x*y
  17,                                     !- Minimum Value of x {BasedOnField A2}
  22,                                     !- Maximum Value of x {BasedOnField A2}
  13,                                     !- Minimum Value of y {BasedOnField A3}
  46;                                     !- Maximum Value of y {BasedOnField A3}

Curve:Biquadratic,
  Curve Biquadratic 24,                   !- Name
  0.342414409,                            !- Coefficient1 Constant
  0.034885008,                            !- Coefficient2 x
  -0.0006237,                             !- Coefficient3 x**2
  0.004977216,                            !- Coefficient4 y
  0.000437951,                            !- Coefficient5 y**2
  -0.000728028,                           !- Coefficient6 x*y
  17,                                     !- Minimum Value of x {BasedOnField A2}
  22,                                     !- Maximum Value of x {BasedOnField A2}
  13,                                     !- Minimum Value of y {BasedOnField A3}
  46;                                     !- Maximum Value of y {BasedOnField A3}

Curve:Biquadratic,
  Curve Biquadratic 25,                   !- Name
  0.942587793,                            !- Coefficient1 Constant
  0.009543347,                            !- Coefficient2 x
  0.00068377,                             !- Coefficient3 x**2
  -0.011042676,                           !- Coefficient4 y
  5.249e-06,                              !- Coefficient5 y**2
  -9.72e-06,                              !- Coefficient6 x*y
  17,                                     !- Minimum Value of x {BasedOnField A2}
  22,                                     !- Maximum Value of x {BasedOnField A2}
  13,                                     !- Minimum Value of y {BasedOnField A3}
  46;                                     !- Maximum Value of y {BasedOnField A3}

Curve:Biquadratic,
  Curve Biquadratic 26,                   !- Name
  0.342414409,                            !- Coefficient1 Constant
  0.034885008,                            !- Coefficient2 x
  -0.0006237,                             !- Coefficient3 x**2
  0.004977216,                            !- Coefficient4 y
  0.000437951,                            !- Coefficient5 y**2
  -0.000728028,                           !- Coefficient6 x*y
  17,                                     !- Minimum Value of x {BasedOnField A2}
  22,                                     !- Maximum Value of x {BasedOnField A2}
  13,                                     !- Minimum Value of y {BasedOnField A3}
  46;                                     !- Maximum Value of y {BasedOnField A3}

Curve:Biquadratic,
  Curve Biquadratic 27,                   !- Name
  0.942587793,                            !- Coefficient1 Constant
  0.009543347,                            !- Coefficient2 x
  0.00068377,                             !- Coefficient3 x**2
  -0.011042676,                           !- Coefficient4 y
  5.249e-06,                              !- Coefficient5 y**2
  -9.72e-06,                              !- Coefficient6 x*y
  17,                                     !- Minimum Value of x {BasedOnField A2}
  22,                                     !- Maximum Value of x {BasedOnField A2}
  13,                                     !- Minimum Value of y {BasedOnField A3}
  46;                                     !- Maximum Value of y {BasedOnField A3}

Curve:Biquadratic,
  Curve Biquadratic 28,                   !- Name
  0.342414409,                            !- Coefficient1 Constant
  0.034885008,                            !- Coefficient2 x
  -0.0006237,                             !- Coefficient3 x**2
  0.004977216,                            !- Coefficient4 y
  0.000437951,                            !- Coefficient5 y**2
  -0.000728028,                           !- Coefficient6 x*y
  17,                                     !- Minimum Value of x {BasedOnField A2}
  22,                                     !- Maximum Value of x {BasedOnField A2}
  13,                                     !- Minimum Value of y {BasedOnField A3}
  46;                                     !- Maximum Value of y {BasedOnField A3}

Curve:Biquadratic,
  Curve Biquadratic 29,                   !- Name
  0.942587793,                            !- Coefficient1 Constant
  0.009543347,                            !- Coefficient2 x
  0.00068377,                             !- Coefficient3 x**2
  -0.011042676,                           !- Coefficient4 y
  5.249e-06,                              !- Coefficient5 y**2
  -9.72e-06,                              !- Coefficient6 x*y
  17,                                     !- Minimum Value of x {BasedOnField A2}
  22,                                     !- Maximum Value of x {BasedOnField A2}
  13,                                     !- Minimum Value of y {BasedOnField A3}
  46;                                     !- Maximum Value of y {BasedOnField A3}

Curve:Biquadratic,
  Curve Biquadratic 3,                    !- Name
  1.6253449506,                           !- Coefficient1 Constant
  -0.0786550838,                          !- Coefficient2 x
  0.0030679776,                           !- Coefficient3 x**2
  0.0008002088,                           !- Coefficient4 y
  -3.5406e-05,                            !- Coefficient5 y**2
  -0.0003534409,                          !- Coefficient6 x*y
  13.89,                                  !- Minimum Value of x {BasedOnField A2}
  22.22,                                  !- Maximum Value of x {BasedOnField A2}
  12.78,                                  !- Minimum Value of y {BasedOnField A3}
  51.67;                                  !- Maximum Value of y {BasedOnField A3}

Curve:Biquadratic,
  Curve Biquadratic 30,                   !- Name
  0.342414409,                            !- Coefficient1 Constant
  0.034885008,                            !- Coefficient2 x
  -0.0006237,                             !- Coefficient3 x**2
  0.004977216,                            !- Coefficient4 y
  0.000437951,                            !- Coefficient5 y**2
  -0.000728028,                           !- Coefficient6 x*y
  17,                                     !- Minimum Value of x {BasedOnField A2}
  22,                                     !- Maximum Value of x {BasedOnField A2}
  13,                                     !- Minimum Value of y {BasedOnField A3}
  46;                                     !- Maximum Value of y {BasedOnField A3}

Curve:Biquadratic,
  Curve Biquadratic 31,                   !- Name
  0.942587793,                            !- Coefficient1 Constant
  0.009543347,                            !- Coefficient2 x
  0.00068377,                             !- Coefficient3 x**2
  -0.011042676,                           !- Coefficient4 y
  5.249e-06,                              !- Coefficient5 y**2
  -9.72e-06,                              !- Coefficient6 x*y
  17,                                     !- Minimum Value of x {BasedOnField A2}
  22,                                     !- Maximum Value of x {BasedOnField A2}
  13,                                     !- Minimum Value of y {BasedOnField A3}
  46;                                     !- Maximum Value of y {BasedOnField A3}

Curve:Biquadratic,
  Curve Biquadratic 32,                   !- Name
  0.342414409,                            !- Coefficient1 Constant
  0.034885008,                            !- Coefficient2 x
  -0.0006237,                             !- Coefficient3 x**2
  0.004977216,                            !- Coefficient4 y
  0.000437951,                            !- Coefficient5 y**2
  -0.000728028,                           !- Coefficient6 x*y
  17,                                     !- Minimum Value of x {BasedOnField A2}
  22,                                     !- Maximum Value of x {BasedOnField A2}
  13,                                     !- Minimum Value of y {BasedOnField A3}
  46;                                     !- Maximum Value of y {BasedOnField A3}

Curve:Biquadratic,
  Curve Biquadratic 33,                   !- Name
  0.942587793,                            !- Coefficient1 Constant
  0.009543347,                            !- Coefficient2 x
  0.00068377,                             !- Coefficient3 x**2
  -0.011042676,                           !- Coefficient4 y
  5.249e-06,                              !- Coefficient5 y**2
  -9.72e-06,                              !- Coefficient6 x*y
  17,                                     !- Minimum Value of x {BasedOnField A2}
  22,                                     !- Maximum Value of x {BasedOnField A2}
  13,                                     !- Minimum Value of y {BasedOnField A3}
  46;                                     !- Maximum Value of y {BasedOnField A3}

Curve:Biquadratic,
  Curve Biquadratic 34,                   !- Name
  0.342414409,                            !- Coefficient1 Constant
  0.034885008,                            !- Coefficient2 x
  -0.0006237,                             !- Coefficient3 x**2
  0.004977216,                            !- Coefficient4 y
  0.000437951,                            !- Coefficient5 y**2
  -0.000728028,                           !- Coefficient6 x*y
  17,                                     !- Minimum Value of x {BasedOnField A2}
  22,                                     !- Maximum Value of x {BasedOnField A2}
  13,                                     !- Minimum Value of y {BasedOnField A3}
  46;                                     !- Maximum Value of y {BasedOnField A3}

Curve:Biquadratic,
  Curve Biquadratic 35,                   !- Name
  0.942587793,                            !- Coefficient1 Constant
  0.009543347,                            !- Coefficient2 x
  0.00068377,                             !- Coefficient3 x**2
  -0.011042676,                           !- Coefficient4 y
  5.249e-06,                              !- Coefficient5 y**2
  -9.72e-06,                              !- Coefficient6 x*y
  17,                                     !- Minimum Value of x {BasedOnField A2}
  22,                                     !- Maximum Value of x {BasedOnField A2}
  13,                                     !- Minimum Value of y {BasedOnField A3}
  46;                                     !- Maximum Value of y {BasedOnField A3}

Curve:Biquadratic,
  Curve Biquadratic 36,                   !- Name
  0.342414409,                            !- Coefficient1 Constant
  0.034885008,                            !- Coefficient2 x
  -0.0006237,                             !- Coefficient3 x**2
  0.004977216,                            !- Coefficient4 y
  0.000437951,                            !- Coefficient5 y**2
  -0.000728028,                           !- Coefficient6 x*y
  17,                                     !- Minimum Value of x {BasedOnField A2}
  22,                                     !- Maximum Value of x {BasedOnField A2}
  13,                                     !- Minimum Value of y {BasedOnField A3}
  46;                                     !- Maximum Value of y {BasedOnField A3}

Curve:Biquadratic,
  Curve Biquadratic 37,                   !- Name
  0.942587793,                            !- Coefficient1 Constant
  0.009543347,                            !- Coefficient2 x
  0.00068377,                             !- Coefficient3 x**2
  -0.011042676,                           !- Coefficient4 y
  5.249e-06,                              !- Coefficient5 y**2
  -9.72e-06,                              !- Coefficient6 x*y
  17,                                     !- Minimum Value of x {BasedOnField A2}
  22,                                     !- Maximum Value of x {BasedOnField A2}
  13,                                     !- Minimum Value of y {BasedOnField A3}
  46;                                     !- Maximum Value of y {BasedOnField A3}

Curve:Biquadratic,
  Curve Biquadratic 38,                   !- Name
  0.342414409,                            !- Coefficient1 Constant
  0.034885008,                            !- Coefficient2 x
  -0.0006237,                             !- Coefficient3 x**2
  0.004977216,                            !- Coefficient4 y
  0.000437951,                            !- Coefficient5 y**2
  -0.000728028,                           !- Coefficient6 x*y
  17,                                     !- Minimum Value of x {BasedOnField A2}
  22,                                     !- Maximum Value of x {BasedOnField A2}
  13,                                     !- Minimum Value of y {BasedOnField A3}
  46;                                     !- Maximum Value of y {BasedOnField A3}

Curve:Biquadratic,
  Curve Biquadratic 39,                   !- Name
  0.942587793,                            !- Coefficient1 Constant
  0.009543347,                            !- Coefficient2 x
  0.00068377,                             !- Coefficient3 x**2
  -0.011042676,                           !- Coefficient4 y
  5.249e-06,                              !- Coefficient5 y**2
  -9.72e-06,                              !- Coefficient6 x*y
  17,                                     !- Minimum Value of x {BasedOnField A2}
  22,                                     !- Maximum Value of x {BasedOnField A2}
  13,                                     !- Minimum Value of y {BasedOnField A3}
  46;                                     !- Maximum Value of y {BasedOnField A3}

Curve:Biquadratic,
  Curve Biquadratic 4,                    !- Name
  1.4240389306,                           !- Coefficient1 Constant
  -0.0593310687,                          !- Coefficient2 x
  0.002606807,                            !- Coefficient3 x**2
  0.0008867551,                           !- Coefficient4 y
  -3.69191e-05,                           !- Coefficient5 y**2
  -0.0003552805,                          !- Coefficient6 x*y
  13.89,                                  !- Minimum Value of x {BasedOnField A2}
  22.22,                                  !- Maximum Value of x {BasedOnField A2}
  12.78,                                  !- Minimum Value of y {BasedOnField A3}
  51.67;                                  !- Maximum Value of y {BasedOnField A3}

Curve:Biquadratic,
  Curve Biquadratic 40,                   !- Name
  0.342414409,                            !- Coefficient1 Constant
  0.034885008,                            !- Coefficient2 x
  -0.0006237,                             !- Coefficient3 x**2
  0.004977216,                            !- Coefficient4 y
  0.000437951,                            !- Coefficient5 y**2
  -0.000728028,                           !- Coefficient6 x*y
  17,                                     !- Minimum Value of x {BasedOnField A2}
  22,                                     !- Maximum Value of x {BasedOnField A2}
  13,                                     !- Minimum Value of y {BasedOnField A3}
  46;                                     !- Maximum Value of y {BasedOnField A3}

Curve:Biquadratic,
  Curve Biquadratic 41,                   !- Name
  0.8406506803,                           !- Coefficient1 Constant
  -8.3433e-05,                            !- Coefficient2 x
  -6.83822e-05,                           !- Coefficient3 x**2
  0.0234244981,                           !- Coefficient4 y
  0.000176366,                            !- Coefficient5 y**2
  -9.01777e-05,                           !- Coefficient6 x*y
  17.78,                                  !- Minimum Value of x {BasedOnField A2}
  23.33,                                  !- Maximum Value of x {BasedOnField A2}
  -30.56,                                 !- Minimum Value of y {BasedOnField A3}
  17.22;                                  !- Maximum Value of y {BasedOnField A3}

Curve:Biquadratic,
  Curve Biquadratic 42,                   !- Name
  0.9172082199,                           !- Coefficient1 Constant
  -0.0116036212,                          !- Coefficient2 x
  0.0010074804,                           !- Coefficient3 x**2
  -0.0089288423,                          !- Coefficient4 y
  0.0009349133,                           !- Coefficient5 y**2
  -0.0009326244,                          !- Coefficient6 x*y
  17.78,                                  !- Minimum Value of x {BasedOnField A2}
  23.33,                                  !- Maximum Value of x {BasedOnField A2}
  -30.56,                                 !- Minimum Value of y {BasedOnField A3}
  17.22;                                  !- Maximum Value of y {BasedOnField A3}

Curve:Biquadratic,
  Curve Biquadratic 43,                   !- Name
  1.6253449506,                           !- Coefficient1 Constant
  -0.0786550838,                          !- Coefficient2 x
  0.0030679776,                           !- Coefficient3 x**2
  0.0008002088,                           !- Coefficient4 y
  -3.5406e-05,                            !- Coefficient5 y**2
  -0.0003534409,                          !- Coefficient6 x*y
  13.89,                                  !- Minimum Value of x {BasedOnField A2}
  22.22,                                  !- Maximum Value of x {BasedOnField A2}
  12.78,                                  !- Minimum Value of y {BasedOnField A3}
  51.67;                                  !- Maximum Value of y {BasedOnField A3}

Curve:Biquadratic,
  Curve Biquadratic 44,                   !- Name
  1.4240389306,                           !- Coefficient1 Constant
  -0.0593310687,                          !- Coefficient2 x
  0.002606807,                            !- Coefficient3 x**2
  0.0008867551,                           !- Coefficient4 y
  -3.69191e-05,                           !- Coefficient5 y**2
  -0.0003552805,                          !- Coefficient6 x*y
  13.89,                                  !- Minimum Value of x {BasedOnField A2}
  22.22,                                  !- Maximum Value of x {BasedOnField A2}
  12.78,                                  !- Minimum Value of y {BasedOnField A3}
  51.67;                                  !- Maximum Value of y {BasedOnField A3}

Curve:Biquadratic,
  Curve Biquadratic 5,                    !- Name
  0.942587793,                            !- Coefficient1 Constant
  0.009543347,                            !- Coefficient2 x
  0.00068377,                             !- Coefficient3 x**2
  -0.011042676,                           !- Coefficient4 y
  5.249e-06,                              !- Coefficient5 y**2
  -9.72e-06,                              !- Coefficient6 x*y
  17,                                     !- Minimum Value of x {BasedOnField A2}
  22,                                     !- Maximum Value of x {BasedOnField A2}
  13,                                     !- Minimum Value of y {BasedOnField A3}
  46;                                     !- Maximum Value of y {BasedOnField A3}

Curve:Biquadratic,
  Curve Biquadratic 6,                    !- Name
  0.342414409,                            !- Coefficient1 Constant
  0.034885008,                            !- Coefficient2 x
  -0.0006237,                             !- Coefficient3 x**2
  0.004977216,                            !- Coefficient4 y
  0.000437951,                            !- Coefficient5 y**2
  -0.000728028,                           !- Coefficient6 x*y
  17,                                     !- Minimum Value of x {BasedOnField A2}
  22,                                     !- Maximum Value of x {BasedOnField A2}
  13,                                     !- Minimum Value of y {BasedOnField A3}
  46;                                     !- Maximum Value of y {BasedOnField A3}

Curve:Biquadratic,
  Curve Biquadratic 7,                    !- Name
  0.942587793,                            !- Coefficient1 Constant
  0.009543347,                            !- Coefficient2 x
  0.00068377,                             !- Coefficient3 x**2
  -0.011042676,                           !- Coefficient4 y
  5.249e-06,                              !- Coefficient5 y**2
  -9.72e-06,                              !- Coefficient6 x*y
  17,                                     !- Minimum Value of x {BasedOnField A2}
  22,                                     !- Maximum Value of x {BasedOnField A2}
  13,                                     !- Minimum Value of y {BasedOnField A3}
  46;                                     !- Maximum Value of y {BasedOnField A3}

Curve:Biquadratic,
  Curve Biquadratic 8,                    !- Name
  0.342414409,                            !- Coefficient1 Constant
  0.034885008,                            !- Coefficient2 x
  -0.0006237,                             !- Coefficient3 x**2
  0.004977216,                            !- Coefficient4 y
  0.000437951,                            !- Coefficient5 y**2
  -0.000728028,                           !- Coefficient6 x*y
  17,                                     !- Minimum Value of x {BasedOnField A2}
  22,                                     !- Maximum Value of x {BasedOnField A2}
  13,                                     !- Minimum Value of y {BasedOnField A3}
  46;                                     !- Maximum Value of y {BasedOnField A3}

Curve:Biquadratic,
  Curve Biquadratic 9,                    !- Name
  0.942587793,                            !- Coefficient1 Constant
  0.009543347,                            !- Coefficient2 x
  0.00068377,                             !- Coefficient3 x**2
  -0.011042676,                           !- Coefficient4 y
  5.249e-06,                              !- Coefficient5 y**2
  -9.72e-06,                              !- Coefficient6 x*y
  17,                                     !- Minimum Value of x {BasedOnField A2}
  22,                                     !- Maximum Value of x {BasedOnField A2}
  13,                                     !- Minimum Value of y {BasedOnField A3}
  46;                                     !- Maximum Value of y {BasedOnField A3}

Curve:Quadratic,
  Curve Quadratic 1,                      !- Name
  0.85,                                   !- Coefficient1 Constant
  0.15,                                   !- Coefficient2 x
  0,                                      !- Coefficient3 x**2
  0,                                      !- Minimum Value of x {BasedOnField A2}
  1;                                      !- Maximum Value of x {BasedOnField A2}

Curve:Quadratic,
  Curve Quadratic 10,                     !- Name
  0.8,                                    !- Coefficient1 Constant
  0.2,                                    !- Coefficient2 x
  0,                                      !- Coefficient3 x**2
  0.5,                                    !- Minimum Value of x {BasedOnField A2}
  1.5;                                    !- Maximum Value of x {BasedOnField A2}

Curve:Quadratic,
  Curve Quadratic 11,                     !- Name
  1.1552,                                 !- Coefficient1 Constant
  -0.1808,                                !- Coefficient2 x
  0.0256,                                 !- Coefficient3 x**2
  0.5,                                    !- Minimum Value of x {BasedOnField A2}
  1.5;                                    !- Maximum Value of x {BasedOnField A2}

Curve:Quadratic,
  Curve Quadratic 12,                     !- Name
  0.85,                                   !- Coefficient1 Constant
  0.15,                                   !- Coefficient2 x
  0,                                      !- Coefficient3 x**2
  0,                                      !- Minimum Value of x {BasedOnField A2}
  1;                                      !- Maximum Value of x {BasedOnField A2}

Curve:Quadratic,
  Curve Quadratic 13,                     !- Name
  0.8,                                    !- Coefficient1 Constant
  0.2,                                    !- Coefficient2 x
  0,                                      !- Coefficient3 x**2
  0.5,                                    !- Minimum Value of x {BasedOnField A2}
  1.5;                                    !- Maximum Value of x {BasedOnField A2}

Curve:Quadratic,
  Curve Quadratic 14,                     !- Name
  1.1552,                                 !- Coefficient1 Constant
  -0.1808,                                !- Coefficient2 x
  0.0256,                                 !- Coefficient3 x**2
  0.5,                                    !- Minimum Value of x {BasedOnField A2}
  1.5;                                    !- Maximum Value of x {BasedOnField A2}

Curve:Quadratic,
  Curve Quadratic 15,                     !- Name
  0.85,                                   !- Coefficient1 Constant
  0.15,                                   !- Coefficient2 x
  0,                                      !- Coefficient3 x**2
  0,                                      !- Minimum Value of x {BasedOnField A2}
  1;                                      !- Maximum Value of x {BasedOnField A2}

Curve:Quadratic,
  Curve Quadratic 16,                     !- Name
  0.8,                                    !- Coefficient1 Constant
  0.2,                                    !- Coefficient2 x
  0,                                      !- Coefficient3 x**2
  0.5,                                    !- Minimum Value of x {BasedOnField A2}
  1.5;                                    !- Maximum Value of x {BasedOnField A2}

Curve:Quadratic,
  Curve Quadratic 17,                     !- Name
  1.1552,                                 !- Coefficient1 Constant
  -0.1808,                                !- Coefficient2 x
  0.0256,                                 !- Coefficient3 x**2
  0.5,                                    !- Minimum Value of x {BasedOnField A2}
  1.5;                                    !- Maximum Value of x {BasedOnField A2}

Curve:Quadratic,
  Curve Quadratic 18,                     !- Name
  0.85,                                   !- Coefficient1 Constant
  0.15,                                   !- Coefficient2 x
  0,                                      !- Coefficient3 x**2
  0,                                      !- Minimum Value of x {BasedOnField A2}
  1;                                      !- Maximum Value of x {BasedOnField A2}

Curve:Quadratic,
  Curve Quadratic 19,                     !- Name
  0.8,                                    !- Coefficient1 Constant
  0.2,                                    !- Coefficient2 x
  0,                                      !- Coefficient3 x**2
  0.5,                                    !- Minimum Value of x {BasedOnField A2}
  1.5;                                    !- Maximum Value of x {BasedOnField A2}

Curve:Quadratic,
  Curve Quadratic 2,                      !- Name
  1,                                      !- Coefficient1 Constant
  0,                                      !- Coefficient2 x
  0,                                      !- Coefficient3 x**2
  0.5,                                    !- Minimum Value of x {BasedOnField A2}
  1.5;                                    !- Maximum Value of x {BasedOnField A2}

Curve:Quadratic,
  Curve Quadratic 20,                     !- Name
  1.1552,                                 !- Coefficient1 Constant
  -0.1808,                                !- Coefficient2 x
  0.0256,                                 !- Coefficient3 x**2
  0.5,                                    !- Minimum Value of x {BasedOnField A2}
  1.5;                                    !- Maximum Value of x {BasedOnField A2}

Curve:Quadratic,
  Curve Quadratic 21,                     !- Name
  0.85,                                   !- Coefficient1 Constant
  0.15,                                   !- Coefficient2 x
  0,                                      !- Coefficient3 x**2
  0,                                      !- Minimum Value of x {BasedOnField A2}
  1;                                      !- Maximum Value of x {BasedOnField A2}

Curve:Quadratic,
  Curve Quadratic 22,                     !- Name
  0.8,                                    !- Coefficient1 Constant
  0.2,                                    !- Coefficient2 x
  0,                                      !- Coefficient3 x**2
  0.5,                                    !- Minimum Value of x {BasedOnField A2}
  1.5;                                    !- Maximum Value of x {BasedOnField A2}

Curve:Quadratic,
  Curve Quadratic 23,                     !- Name
  1.1552,                                 !- Coefficient1 Constant
  -0.1808,                                !- Coefficient2 x
  0.0256,                                 !- Coefficient3 x**2
  0.5,                                    !- Minimum Value of x {BasedOnField A2}
  1.5;                                    !- Maximum Value of x {BasedOnField A2}

Curve:Quadratic,
  Curve Quadratic 24,                     !- Name
  0.85,                                   !- Coefficient1 Constant
  0.15,                                   !- Coefficient2 x
  0,                                      !- Coefficient3 x**2
  0,                                      !- Minimum Value of x {BasedOnField A2}
  1;                                      !- Maximum Value of x {BasedOnField A2}

Curve:Quadratic,
  Curve Quadratic 25,                     !- Name
  0.8,                                    !- Coefficient1 Constant
  0.2,                                    !- Coefficient2 x
  0,                                      !- Coefficient3 x**2
  0.5,                                    !- Minimum Value of x {BasedOnField A2}
  1.5;                                    !- Maximum Value of x {BasedOnField A2}

Curve:Quadratic,
  Curve Quadratic 26,                     !- Name
  1.1552,                                 !- Coefficient1 Constant
  -0.1808,                                !- Coefficient2 x
  0.0256,                                 !- Coefficient3 x**2
  0.5,                                    !- Minimum Value of x {BasedOnField A2}
  1.5;                                    !- Maximum Value of x {BasedOnField A2}

Curve:Quadratic,
  Curve Quadratic 27,                     !- Name
  0.85,                                   !- Coefficient1 Constant
  0.15,                                   !- Coefficient2 x
  0,                                      !- Coefficient3 x**2
  0,                                      !- Minimum Value of x {BasedOnField A2}
  1;                                      !- Maximum Value of x {BasedOnField A2}

Curve:Quadratic,
  Curve Quadratic 28,                     !- Name
  0.8,                                    !- Coefficient1 Constant
  0.2,                                    !- Coefficient2 x
  0,                                      !- Coefficient3 x**2
  0.5,                                    !- Minimum Value of x {BasedOnField A2}
  1.5;                                    !- Maximum Value of x {BasedOnField A2}

Curve:Quadratic,
  Curve Quadratic 29,                     !- Name
  1.1552,                                 !- Coefficient1 Constant
  -0.1808,                                !- Coefficient2 x
  0.0256,                                 !- Coefficient3 x**2
  0.5,                                    !- Minimum Value of x {BasedOnField A2}
  1.5;                                    !- Maximum Value of x {BasedOnField A2}

Curve:Quadratic,
  Curve Quadratic 3,                      !- Name
  1,                                      !- Coefficient1 Constant
  0,                                      !- Coefficient2 x
  0,                                      !- Coefficient3 x**2
  0.5,                                    !- Minimum Value of x {BasedOnField A2}
  1.5;                                    !- Maximum Value of x {BasedOnField A2}

Curve:Quadratic,
  Curve Quadratic 30,                     !- Name
  0.85,                                   !- Coefficient1 Constant
  0.15,                                   !- Coefficient2 x
  0,                                      !- Coefficient3 x**2
  0,                                      !- Minimum Value of x {BasedOnField A2}
  1;                                      !- Maximum Value of x {BasedOnField A2}

Curve:Quadratic,
  Curve Quadratic 31,                     !- Name
  0.8,                                    !- Coefficient1 Constant
  0.2,                                    !- Coefficient2 x
  0,                                      !- Coefficient3 x**2
  0.5,                                    !- Minimum Value of x {BasedOnField A2}
  1.5;                                    !- Maximum Value of x {BasedOnField A2}

Curve:Quadratic,
  Curve Quadratic 32,                     !- Name
  1.1552,                                 !- Coefficient1 Constant
  -0.1808,                                !- Coefficient2 x
  0.0256,                                 !- Coefficient3 x**2
  0.5,                                    !- Minimum Value of x {BasedOnField A2}
  1.5;                                    !- Maximum Value of x {BasedOnField A2}

Curve:Quadratic,
  Curve Quadratic 33,                     !- Name
  0.85,                                   !- Coefficient1 Constant
  0.15,                                   !- Coefficient2 x
  0,                                      !- Coefficient3 x**2
  0,                                      !- Minimum Value of x {BasedOnField A2}
  1;                                      !- Maximum Value of x {BasedOnField A2}

Curve:Quadratic,
  Curve Quadratic 34,                     !- Name
  0.8,                                    !- Coefficient1 Constant
  0.2,                                    !- Coefficient2 x
  0,                                      !- Coefficient3 x**2
  0.5,                                    !- Minimum Value of x {BasedOnField A2}
  1.5;                                    !- Maximum Value of x {BasedOnField A2}

Curve:Quadratic,
  Curve Quadratic 35,                     !- Name
  1.1552,                                 !- Coefficient1 Constant
  -0.1808,                                !- Coefficient2 x
  0.0256,                                 !- Coefficient3 x**2
  0.5,                                    !- Minimum Value of x {BasedOnField A2}
  1.5;                                    !- Maximum Value of x {BasedOnField A2}

Curve:Quadratic,
  Curve Quadratic 36,                     !- Name
  0.85,                                   !- Coefficient1 Constant
  0.15,                                   !- Coefficient2 x
  0,                                      !- Coefficient3 x**2
  0,                                      !- Minimum Value of x {BasedOnField A2}
  1;                                      !- Maximum Value of x {BasedOnField A2}

Curve:Quadratic,
  Curve Quadratic 37,                     !- Name
  0.8,                                    !- Coefficient1 Constant
  0.2,                                    !- Coefficient2 x
  0,                                      !- Coefficient3 x**2
  0.5,                                    !- Minimum Value of x {BasedOnField A2}
  1.5;                                    !- Maximum Value of x {BasedOnField A2}

Curve:Quadratic,
  Curve Quadratic 38,                     !- Name
  1.1552,                                 !- Coefficient1 Constant
  -0.1808,                                !- Coefficient2 x
  0.0256,                                 !- Coefficient3 x**2
  0.5,                                    !- Minimum Value of x {BasedOnField A2}
  1.5;                                    !- Maximum Value of x {BasedOnField A2}

Curve:Quadratic,
  Curve Quadratic 39,                     !- Name
  0.85,                                   !- Coefficient1 Constant
  0.15,                                   !- Coefficient2 x
  0,                                      !- Coefficient3 x**2
  0,                                      !- Minimum Value of x {BasedOnField A2}
  1;                                      !- Maximum Value of x {BasedOnField A2}

Curve:Quadratic,
  Curve Quadratic 4,                      !- Name
  0.85,                                   !- Coefficient1 Constant
  0.15,                                   !- Coefficient2 x
  0,                                      !- Coefficient3 x**2
  0,                                      !- Minimum Value of x {BasedOnField A2}
  1;                                      !- Maximum Value of x {BasedOnField A2}

Curve:Quadratic,
  Curve Quadratic 40,                     !- Name
  0.8,                                    !- Coefficient1 Constant
  0.2,                                    !- Coefficient2 x
  0,                                      !- Coefficient3 x**2
  0.5,                                    !- Minimum Value of x {BasedOnField A2}
  1.5;                                    !- Maximum Value of x {BasedOnField A2}

Curve:Quadratic,
  Curve Quadratic 41,                     !- Name
  1.1552,                                 !- Coefficient1 Constant
  -0.1808,                                !- Coefficient2 x
  0.0256,                                 !- Coefficient3 x**2
  0.5,                                    !- Minimum Value of x {BasedOnField A2}
  1.5;                                    !- Maximum Value of x {BasedOnField A2}

Curve:Quadratic,
  Curve Quadratic 42,                     !- Name
  0.85,                                   !- Coefficient1 Constant
  0.15,                                   !- Coefficient2 x
  0,                                      !- Coefficient3 x**2
  0,                                      !- Minimum Value of x {BasedOnField A2}
  1;                                      !- Maximum Value of x {BasedOnField A2}

Curve:Quadratic,
  Curve Quadratic 43,                     !- Name
  0.8,                                    !- Coefficient1 Constant
  0.2,                                    !- Coefficient2 x
  0,                                      !- Coefficient3 x**2
  0.5,                                    !- Minimum Value of x {BasedOnField A2}
  1.5;                                    !- Maximum Value of x {BasedOnField A2}

Curve:Quadratic,
  Curve Quadratic 44,                     !- Name
  1.1552,                                 !- Coefficient1 Constant
  -0.1808,                                !- Coefficient2 x
  0.0256,                                 !- Coefficient3 x**2
  0.5,                                    !- Minimum Value of x {BasedOnField A2}
  1.5;                                    !- Maximum Value of x {BasedOnField A2}

Curve:Quadratic,
  Curve Quadratic 45,                     !- Name
  0.85,                                   !- Coefficient1 Constant
  0.15,                                   !- Coefficient2 x
  0,                                      !- Coefficient3 x**2
  0,                                      !- Minimum Value of x {BasedOnField A2}
  1;                                      !- Maximum Value of x {BasedOnField A2}

Curve:Quadratic,
  Curve Quadratic 46,                     !- Name
  0.8,                                    !- Coefficient1 Constant
  0.2,                                    !- Coefficient2 x
  0,                                      !- Coefficient3 x**2
  0.5,                                    !- Minimum Value of x {BasedOnField A2}
  1.5;                                    !- Maximum Value of x {BasedOnField A2}

Curve:Quadratic,
  Curve Quadratic 47,                     !- Name
  1.1552,                                 !- Coefficient1 Constant
  -0.1808,                                !- Coefficient2 x
  0.0256,                                 !- Coefficient3 x**2
  0.5,                                    !- Minimum Value of x {BasedOnField A2}
  1.5;                                    !- Maximum Value of x {BasedOnField A2}

Curve:Quadratic,
  Curve Quadratic 48,                     !- Name
  0.85,                                   !- Coefficient1 Constant
  0.15,                                   !- Coefficient2 x
  0,                                      !- Coefficient3 x**2
  0,                                      !- Minimum Value of x {BasedOnField A2}
  1;                                      !- Maximum Value of x {BasedOnField A2}

Curve:Quadratic,
  Curve Quadratic 49,                     !- Name
  0.8,                                    !- Coefficient1 Constant
  0.2,                                    !- Coefficient2 x
  0,                                      !- Coefficient3 x**2
  0.5,                                    !- Minimum Value of x {BasedOnField A2}
  1.5;                                    !- Maximum Value of x {BasedOnField A2}

Curve:Quadratic,
  Curve Quadratic 5,                      !- Name
  1,                                      !- Coefficient1 Constant
  0,                                      !- Coefficient2 x
  0,                                      !- Coefficient3 x**2
  0.5,                                    !- Minimum Value of x {BasedOnField A2}
  1.5;                                    !- Maximum Value of x {BasedOnField A2}

Curve:Quadratic,
  Curve Quadratic 50,                     !- Name
  1.1552,                                 !- Coefficient1 Constant
  -0.1808,                                !- Coefficient2 x
  0.0256,                                 !- Coefficient3 x**2
  0.5,                                    !- Minimum Value of x {BasedOnField A2}
  1.5;                                    !- Maximum Value of x {BasedOnField A2}

Curve:Quadratic,
  Curve Quadratic 51,                     !- Name
  0.85,                                   !- Coefficient1 Constant
  0.15,                                   !- Coefficient2 x
  0,                                      !- Coefficient3 x**2
  0,                                      !- Minimum Value of x {BasedOnField A2}
  1;                                      !- Maximum Value of x {BasedOnField A2}

Curve:Quadratic,
  Curve Quadratic 52,                     !- Name
  0.8,                                    !- Coefficient1 Constant
  0.2,                                    !- Coefficient2 x
  0,                                      !- Coefficient3 x**2
  0.5,                                    !- Minimum Value of x {BasedOnField A2}
  1.5;                                    !- Maximum Value of x {BasedOnField A2}

Curve:Quadratic,
  Curve Quadratic 53,                     !- Name
  1.1552,                                 !- Coefficient1 Constant
  -0.1808,                                !- Coefficient2 x
  0.0256,                                 !- Coefficient3 x**2
  0.5,                                    !- Minimum Value of x {BasedOnField A2}
  1.5;                                    !- Maximum Value of x {BasedOnField A2}

Curve:Quadratic,
  Curve Quadratic 54,                     !- Name
  0.85,                                   !- Coefficient1 Constant
  0.15,                                   !- Coefficient2 x
  0,                                      !- Coefficient3 x**2
  0,                                      !- Minimum Value of x {BasedOnField A2}
  1;                                      !- Maximum Value of x {BasedOnField A2}

Curve:Quadratic,
  Curve Quadratic 55,                     !- Name
  0.8,                                    !- Coefficient1 Constant
  0.2,                                    !- Coefficient2 x
  0,                                      !- Coefficient3 x**2
  0.5,                                    !- Minimum Value of x {BasedOnField A2}
  1.5;                                    !- Maximum Value of x {BasedOnField A2}

Curve:Quadratic,
  Curve Quadratic 56,                     !- Name
  1.1552,                                 !- Coefficient1 Constant
  -0.1808,                                !- Coefficient2 x
  0.0256,                                 !- Coefficient3 x**2
  0.5,                                    !- Minimum Value of x {BasedOnField A2}
  1.5;                                    !- Maximum Value of x {BasedOnField A2}

Curve:Quadratic,
  Curve Quadratic 57,                     !- Name
  0.85,                                   !- Coefficient1 Constant
  0.15,                                   !- Coefficient2 x
  0,                                      !- Coefficient3 x**2
  0,                                      !- Minimum Value of x {BasedOnField A2}
  1;                                      !- Maximum Value of x {BasedOnField A2}

Curve:Quadratic,
  Curve Quadratic 58,                     !- Name
  0.8,                                    !- Coefficient1 Constant
  0.2,                                    !- Coefficient2 x
  0,                                      !- Coefficient3 x**2
  0.5,                                    !- Minimum Value of x {BasedOnField A2}
  1.5;                                    !- Maximum Value of x {BasedOnField A2}

Curve:Quadratic,
  Curve Quadratic 59,                     !- Name
  1.1552,                                 !- Coefficient1 Constant
  -0.1808,                                !- Coefficient2 x
  0.0256,                                 !- Coefficient3 x**2
  0.5,                                    !- Minimum Value of x {BasedOnField A2}
  1.5;                                    !- Maximum Value of x {BasedOnField A2}

Curve:Quadratic,
  Curve Quadratic 6,                      !- Name
  1,                                      !- Coefficient1 Constant
  0,                                      !- Coefficient2 x
  0,                                      !- Coefficient3 x**2
  0.5,                                    !- Minimum Value of x {BasedOnField A2}
  1.5;                                    !- Maximum Value of x {BasedOnField A2}

Curve:Quadratic,
  Curve Quadratic 60,                     !- Name
  0.85,                                   !- Coefficient1 Constant
  0.15,                                   !- Coefficient2 x
  0,                                      !- Coefficient3 x**2
  0,                                      !- Minimum Value of x {BasedOnField A2}
  1;                                      !- Maximum Value of x {BasedOnField A2}

Curve:Quadratic,
  Curve Quadratic 61,                     !- Name
  0.85,                                   !- Coefficient1 Constant
  0.15,                                   !- Coefficient2 x
  0,                                      !- Coefficient3 x**2
  0,                                      !- Minimum Value of x {BasedOnField A2}
  1;                                      !- Maximum Value of x {BasedOnField A2}

Curve:Quadratic,
  Curve Quadratic 62,                     !- Name
  1,                                      !- Coefficient1 Constant
  0,                                      !- Coefficient2 x
  0,                                      !- Coefficient3 x**2
  0.5,                                    !- Minimum Value of x {BasedOnField A2}
  1.5;                                    !- Maximum Value of x {BasedOnField A2}

Curve:Quadratic,
  Curve Quadratic 63,                     !- Name
  1,                                      !- Coefficient1 Constant
  0,                                      !- Coefficient2 x
  0,                                      !- Coefficient3 x**2
  0.5,                                    !- Minimum Value of x {BasedOnField A2}
  1.5;                                    !- Maximum Value of x {BasedOnField A2}

Curve:Quadratic,
  Curve Quadratic 64,                     !- Name
  0.85,                                   !- Coefficient1 Constant
  0.15,                                   !- Coefficient2 x
  0,                                      !- Coefficient3 x**2
  0,                                      !- Minimum Value of x {BasedOnField A2}
  1;                                      !- Maximum Value of x {BasedOnField A2}

Curve:Quadratic,
  Curve Quadratic 65,                     !- Name
  1,                                      !- Coefficient1 Constant
  0,                                      !- Coefficient2 x
  0,                                      !- Coefficient3 x**2
  0.5,                                    !- Minimum Value of x {BasedOnField A2}
  1.5;                                    !- Maximum Value of x {BasedOnField A2}

Curve:Quadratic,
  Curve Quadratic 66,                     !- Name
  1,                                      !- Coefficient1 Constant
  0,                                      !- Coefficient2 x
  0,                                      !- Coefficient3 x**2
  0.5,                                    !- Minimum Value of x {BasedOnField A2}
  1.5;                                    !- Maximum Value of x {BasedOnField A2}

Curve:Quadratic,
  Curve Quadratic 7,                      !- Name
  0.8,                                    !- Coefficient1 Constant
  0.2,                                    !- Coefficient2 x
  0,                                      !- Coefficient3 x**2
  0.5,                                    !- Minimum Value of x {BasedOnField A2}
  1.5;                                    !- Maximum Value of x {BasedOnField A2}

Curve:Quadratic,
  Curve Quadratic 8,                      !- Name
  1.1552,                                 !- Coefficient1 Constant
  -0.1808,                                !- Coefficient2 x
  0.0256,                                 !- Coefficient3 x**2
  0.5,                                    !- Minimum Value of x {BasedOnField A2}
  1.5;                                    !- Maximum Value of x {BasedOnField A2}

Curve:Quadratic,
  Curve Quadratic 9,                      !- Name
  0.85,                                   !- Coefficient1 Constant
  0.15,                                   !- Coefficient2 x
  0,                                      !- Coefficient3 x**2
  0,                                      !- Minimum Value of x {BasedOnField A2}
  1;                                      !- Maximum Value of x {BasedOnField A2}

Output:Meter:MeterFileOnly,
  Electricity:Facility,                   !- Key Name
  Hourly;                                 !- Reporting Frequency

Output:Meter:MeterFileOnly,
  ElectricityNet:Facility,                !- Key Name
  Hourly;                                 !- Reporting Frequency

Output:Meter:MeterFileOnly,
  NaturalGas:Facility,                    !- Key Name
  Hourly;                                 !- Reporting Frequency

OutputControl:Table:Style,
  Comma;                                   !- Column Separator

Output:VariableDictionary,
  IDF,                                    !- Key Field
  Unsorted;                               !- Sort Option

Output:SQLite,
  SimpleAndTabular;                       !- Option Type

LifeCycleCost:NonrecurringCost,
  Default Cost,                           !- Name
  Construction,                           !- Category
  0,                                      !- Cost
  ServicePeriod;                          !- Start of Costs

