
Version,
  24.2;                                   !- Version Identifier

Timestep,
  6;                                      !- Number of Timesteps per Hour

LifeCycleCost:Parameters,
  Life Cycle Cost Parameters,             !- Name
  EndOfYear,                              !- Discounting Convention
  ConstantDollar,                         !- Inflation Approach
  0.03,                                   !- Real Discount Rate
  ,                                       !- Nominal Discount Rate
  ,                                       !- Inflation
  ,                                       !- Base Date Month
  2011,                                   !- Base Date Year
  ,                                       !- Service Date Month
  2011,                                   !- Service Date Year
  25,                                     !- Length of Study Period in Years
  ,                                       !- Tax rate
  None;                                   !- Depreciation Method

LifeCycleCost:UsePriceEscalation,
  U.S. Avg  Commercial-Electricity,       !- Name
  Electricity,                            !- Resource
  2011,                                   !- Escalation Start Year
  January,                                !- Escalation Start Month
  0.9838,                                 !- Year Escalation 1
  0.9730,                                 !- Year Escalation 2
  0.9632,                                 !- Year Escalation 3
  0.9611,                                 !- Year Escalation 4
  0.9571,                                 !- Year Escalation 5
  0.9553,                                 !- Year Escalation 6
  0.9539,                                 !- Year Escalation 7
  0.9521,                                 !- Year Escalation 8
  0.9546,                                 !- Year Escalation 9
  0.9550,                                 !- Year Escalation 10
  0.9553,                                 !- Year Escalation 11
  0.9564,                                 !- Year Escalation 12
  0.9575,                                 !- Year Escalation 13
  0.9596,                                 !- Year Escalation 14
  0.9618,                                 !- Year Escalation 15
  0.9614,                                 !- Year Escalation 16
  0.9618,                                 !- Year Escalation 17
  0.9618,                                 !- Year Escalation 18
  0.9593,                                 !- Year Escalation 19
  0.9589,                                 !- Year Escalation 20
  0.9607,                                 !- Year Escalation 21
  0.9625,                                 !- Year Escalation 22
  0.9650,                                 !- Year Escalation 23
  0.9708,                                 !- Year Escalation 24
  0.9751,                                 !- Year Escalation 25
  0.9762,                                 !- Year Escalation 26
  0.9766,                                 !- Year Escalation 27
  0.9766,                                 !- Year Escalation 28
  0.9769,                                 !- Year Escalation 29
  0.9773;                                 !- Year Escalation 30

LifeCycleCost:UsePriceEscalation,
  U.S. Avg  Commercial-Distillate Oil,    !- Name
  FuelOilNo1,                             !- Resource
  2011,                                   !- Escalation Start Year
  January,                                !- Escalation Start Month
  0.9714,                                 !- Year Escalation 1
  0.9730,                                 !- Year Escalation 2
  0.9942,                                 !- Year Escalation 3
  1.0164,                                 !- Year Escalation 4
  1.0541,                                 !- Year Escalation 5
  1.0928,                                 !- Year Escalation 6
  1.1267,                                 !- Year Escalation 7
  1.1580,                                 !- Year Escalation 8
  1.1792,                                 !- Year Escalation 9
  1.1967,                                 !- Year Escalation 10
  1.2200,                                 !- Year Escalation 11
  1.2333,                                 !- Year Escalation 12
  1.2566,                                 !- Year Escalation 13
  1.2709,                                 !- Year Escalation 14
  1.2826,                                 !- Year Escalation 15
  1.2985,                                 !- Year Escalation 16
  1.3102,                                 !- Year Escalation 17
  1.3250,                                 !- Year Escalation 18
  1.3261,                                 !- Year Escalation 19
  1.3282,                                 !- Year Escalation 20
  1.3324,                                 !- Year Escalation 21
  1.3356,                                 !- Year Escalation 22
  1.3431,                                 !- Year Escalation 23
  1.3510,                                 !- Year Escalation 24
  1.3568,                                 !- Year Escalation 25
  1.3606,                                 !- Year Escalation 26
  1.3637,                                 !- Year Escalation 27
  1.3674,                                 !- Year Escalation 28
  1.3706,                                 !- Year Escalation 29
  1.3743;                                 !- Year Escalation 30

LifeCycleCost:UsePriceEscalation,
  U.S. Avg  Commercial-Residual Oil,      !- Name
  FuelOilNo2,                             !- Resource
  2011,                                   !- Escalation Start Year
  January,                                !- Escalation Start Month
  0.8469,                                 !- Year Escalation 1
  0.8257,                                 !- Year Escalation 2
  0.8681,                                 !- Year Escalation 3
  0.8988,                                 !- Year Escalation 4
  0.9289,                                 !- Year Escalation 5
  0.9604,                                 !- Year Escalation 6
  0.9897,                                 !- Year Escalation 7
  1.0075,                                 !- Year Escalation 8
  1.0314,                                 !- Year Escalation 9
  1.0554,                                 !- Year Escalation 10
  1.0861,                                 !- Year Escalation 11
  1.1278,                                 !- Year Escalation 12
  1.1497,                                 !- Year Escalation 13
  1.1620,                                 !- Year Escalation 14
  1.1743,                                 !- Year Escalation 15
  1.1852,                                 !- Year Escalation 16
  1.1948,                                 !- Year Escalation 17
  1.2037,                                 !- Year Escalation 18
  1.2071,                                 !- Year Escalation 19
  1.2119,                                 !- Year Escalation 20
  1.2139,                                 !- Year Escalation 21
  1.2194,                                 !- Year Escalation 22
  1.2276,                                 !- Year Escalation 23
  1.2365,                                 !- Year Escalation 24
  1.2420,                                 !- Year Escalation 25
  1.2461,                                 !- Year Escalation 26
  1.2509,                                 !- Year Escalation 27
  1.2550,                                 !- Year Escalation 28
  1.2591,                                 !- Year Escalation 29
  1.2638;                                 !- Year Escalation 30

LifeCycleCost:UsePriceEscalation,
  U.S. Avg  Commercial-Natural gas,       !- Name
  NaturalGas,                             !- Resource
  2011,                                   !- Escalation Start Year
  January,                                !- Escalation Start Month
  0.9823,                                 !- Year Escalation 1
  0.9557,                                 !- Year Escalation 2
  0.9279,                                 !- Year Escalation 3
  0.9257,                                 !- Year Escalation 4
  0.9346,                                 !- Year Escalation 5
  0.9412,                                 !- Year Escalation 6
  0.9512,                                 !- Year Escalation 7
  0.9645,                                 !- Year Escalation 8
  0.9856,                                 !- Year Escalation 9
  1.0067,                                 !- Year Escalation 10
  1.0222,                                 !- Year Escalation 11
  1.0410,                                 !- Year Escalation 12
  1.0610,                                 !- Year Escalation 13
  1.0787,                                 !- Year Escalation 14
  1.0942,                                 !- Year Escalation 15
  1.1098,                                 !- Year Escalation 16
  1.1220,                                 !- Year Escalation 17
  1.1308,                                 !- Year Escalation 18
  1.1386,                                 !- Year Escalation 19
  1.1486,                                 !- Year Escalation 20
  1.1619,                                 !- Year Escalation 21
  1.1763,                                 !- Year Escalation 22
  1.1918,                                 !- Year Escalation 23
  1.2118,                                 !- Year Escalation 24
  1.2284,                                 !- Year Escalation 25
  1.2439,                                 !- Year Escalation 26
  1.2605,                                 !- Year Escalation 27
  1.2772,                                 !- Year Escalation 28
  1.2938,                                 !- Year Escalation 29
  1.3115;                                 !- Year Escalation 30

LifeCycleCost:UsePriceEscalation,
  U.S. Avg  Commercial-Coal,              !- Name
  Coal,                                   !- Resource
  2011,                                   !- Escalation Start Year
  January,                                !- Escalation Start Month
  0.9970,                                 !- Year Escalation 1
  1.0089,                                 !- Year Escalation 2
  1.0089,                                 !- Year Escalation 3
  0.9941,                                 !- Year Escalation 4
  0.9941,                                 !- Year Escalation 5
  1.0000,                                 !- Year Escalation 6
  1.0030,                                 !- Year Escalation 7
  1.0059,                                 !- Year Escalation 8
  1.0089,                                 !- Year Escalation 9
  1.0119,                                 !- Year Escalation 10
  1.0148,                                 !- Year Escalation 11
  1.0178,                                 !- Year Escalation 12
  1.0208,                                 !- Year Escalation 13
  1.0267,                                 !- Year Escalation 14
  1.0297,                                 !- Year Escalation 15
  1.0356,                                 !- Year Escalation 16
  1.0415,                                 !- Year Escalation 17
  1.0534,                                 !- Year Escalation 18
  1.0564,                                 !- Year Escalation 19
  1.0593,                                 !- Year Escalation 20
  1.0653,                                 !- Year Escalation 21
  1.0712,                                 !- Year Escalation 22
  1.0742,                                 !- Year Escalation 23
  1.0801,                                 !- Year Escalation 24
  1.0831,                                 !- Year Escalation 25
  1.0831,                                 !- Year Escalation 26
  1.0861,                                 !- Year Escalation 27
  1.0890,                                 !- Year Escalation 28
  1.0920,                                 !- Year Escalation 29
  1.0950;                                 !- Year Escalation 30

Building,
  MediumOffice,                           !- Name
  0,                                      !- North Axis {deg}
  City,                                   !- Terrain
  0.04,                                   !- Loads Convergence Tolerance Value {W}
  0.2,                                    !- Temperature Convergence Tolerance Value {deltaC}
  FullInteriorAndExterior,                !- Solar Distribution
  25,                                     !- Maximum Number of Warmup Days
  6;                                      !- Minimum Number of Warmup Days

Zone,
  ALL_ST=- undefined -_FL=Building Story 1_SCH=A, !- Name
  0,                                      !- Direction of Relative North {deg}
  0,                                      !- X Origin {m}
  0,                                      !- Y Origin {m}
  0,                                      !- Z Origin {m}
  ,                                       !- Type
  1,                                      !- Multiplier
  ,                                       !- Ceiling Height {m}
  ,                                       !- Volume {m3}
  ,                                       !- Floor Area {m2}
  ,                                       !- Zone Inside Convection Algorithm
  ,                                       !- Zone Outside Convection Algorithm
  No;                                     !- Part of Total Floor Area

Space,
  FirstFloor_Plenum,                      !- Name
  ALL_ST=- undefined -_FL=Building Story 1_SCH=A, !- Zone Name
  ,                                       !- Ceiling Height {m}
  2024.76034789056,                       !- Volume {m3}
  ,                                       !- Floor Area {m2}
  Space Function - undefined -;           !- Space Type

SpaceList,
  Space Function - undefined -,           !- Name
  TopFloor_Plenum,                        !- Space Name 1
  FirstFloor_Plenum,                      !- Space Name 2
  MidFloor_Plenum;                        !- Space Name 3

BuildingSurface:Detailed,
  FirstFloor_Plenum_Ceiling_1,            !- Name
  Ceiling,                                !- Surface Type
  BTAP-Int-Ceiling,                       !- Construction Name
  ALL_ST=- undefined -_FL=Building Story 1_SCH=A, !- Zone Name
  FirstFloor_Plenum,                      !- Space Name
  Surface,                                !- Outside Boundary Condition
  Perimeter_mid_ZN_1_Floor,               !- Outside Boundary Condition Object
  NoSun,                                  !- Sun Exposure
  NoWind,                                 !- Wind Exposure
  ,                                       !- View Factor to Ground
  ,                                       !- Number of Vertices
  49.911, 0, 3.9624,                      !- X,Y,Z Vertex 1 {m}
  45.3375, 4.5732, 3.9624,                !- X,Y,Z Vertex 2 {m}
  4.5732, 4.5732, 3.9624,                 !- X,Y,Z Vertex 3 {m}
  0, 0, 3.9624;                           !- X,Y,Z Vertex 4 {m}

BuildingSurface:Detailed,
  FirstFloor_Plenum_Ceiling_2,            !- Name
  Ceiling,                                !- Surface Type
  BTAP-Int-Ceiling,                       !- Construction Name
  ALL_ST=- undefined -_FL=Building Story 1_SCH=A, !- Zone Name
  FirstFloor_Plenum,                      !- Space Name
  Surface,                                !- Outside Boundary Condition
  Perimeter_mid_ZN_2_Floor,               !- Outside Boundary Condition Object
  NoSun,                                  !- Sun Exposure
  NoWind,                                 !- Wind Exposure
  ,                                       !- View Factor to Ground
  ,                                       !- Number of Vertices
  49.911, 0, 3.9624,                      !- X,Y,Z Vertex 1 {m}
  49.911, 33.2738, 3.9624,                !- X,Y,Z Vertex 2 {m}
  45.3375, 28.7006, 3.9624,               !- X,Y,Z Vertex 3 {m}
  45.3375, 4.5732, 3.9624;                !- X,Y,Z Vertex 4 {m}

BuildingSurface:Detailed,
  FirstFloor_Plenum_Ceiling_3,            !- Name
  Ceiling,                                !- Surface Type
  BTAP-Int-Ceiling,                       !- Construction Name
  ALL_ST=- undefined -_FL=Building Story 1_SCH=A, !- Zone Name
  FirstFloor_Plenum,                      !- Space Name
  Surface,                                !- Outside Boundary Condition
  Perimeter_mid_ZN_3_Floor,               !- Outside Boundary Condition Object
  NoSun,                                  !- Sun Exposure
  NoWind,                                 !- Wind Exposure
  ,                                       !- View Factor to Ground
  ,                                       !- Number of Vertices
  45.3375, 28.7006, 3.9624,               !- X,Y,Z Vertex 1 {m}
  49.911, 33.2738, 3.9624,                !- X,Y,Z Vertex 2 {m}
  0, 33.2738, 3.9624,                     !- X,Y,Z Vertex 3 {m}
  4.5732, 28.7006, 3.9624;                !- X,Y,Z Vertex 4 {m}

BuildingSurface:Detailed,
  FirstFloor_Plenum_Ceiling_4,            !- Name
  Ceiling,                                !- Surface Type
  BTAP-Int-Ceiling,                       !- Construction Name
  ALL_ST=- undefined -_FL=Building Story 1_SCH=A, !- Zone Name
  FirstFloor_Plenum,                      !- Space Name
  Surface,                                !- Outside Boundary Condition
  Perimeter_mid_ZN_4_Floor,               !- Outside Boundary Condition Object
  NoSun,                                  !- Sun Exposure
  NoWind,                                 !- Wind Exposure
  ,                                       !- View Factor to Ground
  ,                                       !- Number of Vertices
  0, 0, 3.9624,                           !- X,Y,Z Vertex 1 {m}
  4.5732, 4.5732, 3.9624,                 !- X,Y,Z Vertex 2 {m}
  4.5732, 28.7006, 3.9624,                !- X,Y,Z Vertex 3 {m}
  0, 33.2738, 3.9624;                     !- X,Y,Z Vertex 4 {m}

BuildingSurface:Detailed,
  FirstFloor_Plenum_Ceiling_5,            !- Name
  Ceiling,                                !- Surface Type
  BTAP-Int-Ceiling,                       !- Construction Name
  ALL_ST=- undefined -_FL=Building Story 1_SCH=A, !- Zone Name
  FirstFloor_Plenum,                      !- Space Name
  Surface,                                !- Outside Boundary Condition
  Core_mid_ZN_5_Floor,                    !- Outside Boundary Condition Object
  NoSun,                                  !- Sun Exposure
  NoWind,                                 !- Wind Exposure
  ,                                       !- View Factor to Ground
  ,                                       !- Number of Vertices
  45.3375, 4.5732, 3.9624,                !- X,Y,Z Vertex 1 {m}
  45.3375, 28.7006, 3.9624,               !- X,Y,Z Vertex 2 {m}
  4.5732, 28.7006, 3.9624,                !- X,Y,Z Vertex 3 {m}
  4.5732, 4.5732, 3.9624;                 !- X,Y,Z Vertex 4 {m}

BuildingSurface:Detailed,
  FirstFloor_Plenum_Floor_1,              !- Name
  Floor,                                  !- Surface Type
  BTAP-Int-Floor,                         !- Construction Name
  ALL_ST=- undefined -_FL=Building Story 1_SCH=A, !- Zone Name
  FirstFloor_Plenum,                      !- Space Name
  Surface,                                !- Outside Boundary Condition
  Perimeter_bot_ZN_1_Ceiling,             !- Outside Boundary Condition Object
  NoSun,                                  !- Sun Exposure
  NoWind,                                 !- Wind Exposure
  ,                                       !- View Factor to Ground
  ,                                       !- Number of Vertices
  45.3375, 4.5732, 2.7432,                !- X,Y,Z Vertex 1 {m}
  49.911, 0, 2.7432,                      !- X,Y,Z Vertex 2 {m}
  0, 0, 2.7432,                           !- X,Y,Z Vertex 3 {m}
  4.5732, 4.5732, 2.7432;                 !- X,Y,Z Vertex 4 {m}

BuildingSurface:Detailed,
  FirstFloor_Plenum_Floor_2,              !- Name
  Floor,                                  !- Surface Type
  BTAP-Int-Floor,                         !- Construction Name
  ALL_ST=- undefined -_FL=Building Story 1_SCH=A, !- Zone Name
  FirstFloor_Plenum,                      !- Space Name
  Surface,                                !- Outside Boundary Condition
  Perimeter_bot_ZN_2_Ceiling,             !- Outside Boundary Condition Object
  NoSun,                                  !- Sun Exposure
  NoWind,                                 !- Wind Exposure
  ,                                       !- View Factor to Ground
  ,                                       !- Number of Vertices
  49.911, 33.2738, 2.7432,                !- X,Y,Z Vertex 1 {m}
  49.911, 0, 2.7432,                      !- X,Y,Z Vertex 2 {m}
  45.3375, 4.5732, 2.7432,                !- X,Y,Z Vertex 3 {m}
  45.3375, 28.7006, 2.7432;               !- X,Y,Z Vertex 4 {m}

BuildingSurface:Detailed,
  FirstFloor_Plenum_Floor_3,              !- Name
  Floor,                                  !- Surface Type
  BTAP-Int-Floor,                         !- Construction Name
  ALL_ST=- undefined -_FL=Building Story 1_SCH=A, !- Zone Name
  FirstFloor_Plenum,                      !- Space Name
  Surface,                                !- Outside Boundary Condition
  Perimeter_bot_ZN_3_Ceililng,            !- Outside Boundary Condition Object
  NoSun,                                  !- Sun Exposure
  NoWind,                                 !- Wind Exposure
  ,                                       !- View Factor to Ground
  ,                                       !- Number of Vertices
  49.911, 33.2738, 2.7432,                !- X,Y,Z Vertex 1 {m}
  45.3375, 28.7006, 2.7432,               !- X,Y,Z Vertex 2 {m}
  4.5732, 28.7006, 2.7432,                !- X,Y,Z Vertex 3 {m}
  0, 33.2738, 2.7432;                     !- X,Y,Z Vertex 4 {m}

BuildingSurface:Detailed,
  FirstFloor_Plenum_Floor_4,              !- Name
  Floor,                                  !- Surface Type
  BTAP-Int-Floor,                         !- Construction Name
  ALL_ST=- undefined -_FL=Building Story 1_SCH=A, !- Zone Name
  FirstFloor_Plenum,                      !- Space Name
  Surface,                                !- Outside Boundary Condition
  Perimeter_bot_ZN_4_Ceiling,             !- Outside Boundary Condition Object
  NoSun,                                  !- Sun Exposure
  NoWind,                                 !- Wind Exposure
  ,                                       !- View Factor to Ground
  ,                                       !- Number of Vertices
  0, 33.2738, 2.7432,                     !- X,Y,Z Vertex 1 {m}
  4.5732, 28.7006, 2.7432,                !- X,Y,Z Vertex 2 {m}
  4.5732, 4.5732, 2.7432,                 !- X,Y,Z Vertex 3 {m}
  0, 0, 2.7432;                           !- X,Y,Z Vertex 4 {m}

BuildingSurface:Detailed,
  FirstFloor_Plenum_Floor_5,              !- Name
  Floor,                                  !- Surface Type
  BTAP-Int-Floor,                         !- Construction Name
  ALL_ST=- undefined -_FL=Building Story 1_SCH=A, !- Zone Name
  FirstFloor_Plenum,                      !- Space Name
  Surface,                                !- Outside Boundary Condition
  Core_bottom_ceiling,                    !- Outside Boundary Condition Object
  NoSun,                                  !- Sun Exposure
  NoWind,                                 !- Wind Exposure
  ,                                       !- View Factor to Ground
  ,                                       !- Number of Vertices
  45.3375, 28.7006, 2.7432,               !- X,Y,Z Vertex 1 {m}
  45.3375, 4.5732, 2.7432,                !- X,Y,Z Vertex 2 {m}
  4.5732, 4.5732, 2.7432,                 !- X,Y,Z Vertex 3 {m}
  4.5732, 28.7006, 2.7432;                !- X,Y,Z Vertex 4 {m}

BuildingSurface:Detailed,
  Perimeter_bot_Plenum_Wall_East,         !- Name
  Wall,                                   !- Surface Type
  BTAP-Ext-Wall-Mass:U-0.29,              !- Construction Name
  ALL_ST=- undefined -_FL=Building Story 1_SCH=A, !- Zone Name
  FirstFloor_Plenum,                      !- Space Name
  Outdoors,                               !- Outside Boundary Condition
  ,                                       !- Outside Boundary Condition Object
  SunExposed,                             !- Sun Exposure
  WindExposed,                            !- Wind Exposure
  ,                                       !- View Factor to Ground
  ,                                       !- Number of Vertices
  49.911, 0, 3.9624,                      !- X,Y,Z Vertex 1 {m}
  49.911, 0, 2.7432,                      !- X,Y,Z Vertex 2 {m}
  49.911, 33.2738, 2.7432,                !- X,Y,Z Vertex 3 {m}
  49.911, 33.2738, 3.9624;                !- X,Y,Z Vertex 4 {m}

BuildingSurface:Detailed,
  Perimeter_bot_Plenum_Wall_North,        !- Name
  Wall,                                   !- Surface Type
  BTAP-Ext-Wall-Mass:U-0.29,              !- Construction Name
  ALL_ST=- undefined -_FL=Building Story 1_SCH=A, !- Zone Name
  FirstFloor_Plenum,                      !- Space Name
  Outdoors,                               !- Outside Boundary Condition
  ,                                       !- Outside Boundary Condition Object
  SunExposed,                             !- Sun Exposure
  WindExposed,                            !- Wind Exposure
  ,                                       !- View Factor to Ground
  ,                                       !- Number of Vertices
  49.911, 33.2738, 3.9624,                !- X,Y,Z Vertex 1 {m}
  49.911, 33.2738, 2.7432,                !- X,Y,Z Vertex 2 {m}
  0, 33.2738, 2.7432,                     !- X,Y,Z Vertex 3 {m}
  0, 33.2738, 3.9624;                     !- X,Y,Z Vertex 4 {m}

BuildingSurface:Detailed,
  Perimeter_bot_Plenum_Wall_South,        !- Name
  Wall,                                   !- Surface Type
  BTAP-Ext-Wall-Mass:U-0.29,              !- Construction Name
  ALL_ST=- undefined -_FL=Building Story 1_SCH=A, !- Zone Name
  FirstFloor_Plenum,                      !- Space Name
  Outdoors,                               !- Outside Boundary Condition
  ,                                       !- Outside Boundary Condition Object
  SunExposed,                             !- Sun Exposure
  WindExposed,                            !- Wind Exposure
  ,                                       !- View Factor to Ground
  ,                                       !- Number of Vertices
  0, 0, 3.9624,                           !- X,Y,Z Vertex 1 {m}
  0, 0, 2.7432,                           !- X,Y,Z Vertex 2 {m}
  49.911, 0, 2.7432,                      !- X,Y,Z Vertex 3 {m}
  49.911, 0, 3.9624;                      !- X,Y,Z Vertex 4 {m}

BuildingSurface:Detailed,
  Perimeter_bot_Plenum_Wall_West,         !- Name
  Wall,                                   !- Surface Type
  BTAP-Ext-Wall-Mass:U-0.29,              !- Construction Name
  ALL_ST=- undefined -_FL=Building Story 1_SCH=A, !- Zone Name
  FirstFloor_Plenum,                      !- Space Name
  Outdoors,                               !- Outside Boundary Condition
  ,                                       !- Outside Boundary Condition Object
  SunExposed,                             !- Sun Exposure
  WindExposed,                            !- Wind Exposure
  ,                                       !- View Factor to Ground
  ,                                       !- Number of Vertices
  0, 33.2738, 3.9624,                     !- X,Y,Z Vertex 1 {m}
  0, 33.2738, 2.7432,                     !- X,Y,Z Vertex 2 {m}
  0, 0, 2.7432,                           !- X,Y,Z Vertex 3 {m}
  0, 0, 3.9624;                           !- X,Y,Z Vertex 4 {m}

ZoneInfiltration:DesignFlowRate,
  FirstFloor_Plenum Infiltration,         !- Name
  FirstFloor_Plenum,                      !- Zone or ZoneList or Space or SpaceList Name
  Always On Discrete,                     !- Schedule Name
  Flow/ExteriorArea,                      !- Design Flow Rate Calculation Method
  ,                                       !- Design Flow Rate {m3/s}
  ,                                       !- Flow Rate per Floor Area {m3/s-m2}
  0.00471177345157376,                    !- Flow Rate per Exterior Surface Area {m3/s-m2}
  ,                                       !- Air Changes per Hour {1/hr}
  0,                                      !- Constant Term Coefficient
  0,                                      !- Temperature Term Coefficient
  0.224,                                  !- Velocity Term Coefficient
  0;                                      !- Velocity Squared Term Coefficient

Zone,
  ALL_ST=- undefined -_FL=Building Story 2_SCH=A, !- Name
  0,                                      !- Direction of Relative North {deg}
  0,                                      !- X Origin {m}
  0,                                      !- Y Origin {m}
  0,                                      !- Z Origin {m}
  ,                                       !- Type
  1,                                      !- Multiplier
  ,                                       !- Ceiling Height {m}
  ,                                       !- Volume {m3}
  ,                                       !- Floor Area {m2}
  ,                                       !- Zone Inside Convection Algorithm
  ,                                       !- Zone Outside Convection Algorithm
  No;                                     !- Part of Total Floor Area

Space,
  MidFloor_Plenum,                        !- Name
  ALL_ST=- undefined -_FL=Building Story 2_SCH=A, !- Zone Name
  ,                                       !- Ceiling Height {m}
  2024.76034789056,                       !- Volume {m3}
  ,                                       !- Floor Area {m2}
  Space Function - undefined -;           !- Space Type

BuildingSurface:Detailed,
  MidFloor_Plenum_Ceiling_1,              !- Name
  Ceiling,                                !- Surface Type
  BTAP-Int-Ceiling,                       !- Construction Name
  ALL_ST=- undefined -_FL=Building Story 2_SCH=A, !- Zone Name
  MidFloor_Plenum,                        !- Space Name
  Surface,                                !- Outside Boundary Condition
  Perimeter_top_ZN_1_Floor,               !- Outside Boundary Condition Object
  NoSun,                                  !- Sun Exposure
  NoWind,                                 !- Wind Exposure
  ,                                       !- View Factor to Ground
  ,                                       !- Number of Vertices
  49.911, 0, 7.9248,                      !- X,Y,Z Vertex 1 {m}
  45.3375, 4.5732, 7.9248,                !- X,Y,Z Vertex 2 {m}
  4.5732, 4.5732, 7.9248,                 !- X,Y,Z Vertex 3 {m}
  0, 0, 7.9248;                           !- X,Y,Z Vertex 4 {m}

BuildingSurface:Detailed,
  MidFloor_Plenum_Ceiling_2,              !- Name
  Ceiling,                                !- Surface Type
  BTAP-Int-Ceiling,                       !- Construction Name
  ALL_ST=- undefined -_FL=Building Story 2_SCH=A, !- Zone Name
  MidFloor_Plenum,                        !- Space Name
  Surface,                                !- Outside Boundary Condition
  Perimeter_top_ZN_2_Floor,               !- Outside Boundary Condition Object
  NoSun,                                  !- Sun Exposure
  NoWind,                                 !- Wind Exposure
  ,                                       !- View Factor to Ground
  ,                                       !- Number of Vertices
  49.911, 0, 7.9248,                      !- X,Y,Z Vertex 1 {m}
  49.911, 33.2738, 7.9248,                !- X,Y,Z Vertex 2 {m}
  45.3375, 28.7006, 7.9248,               !- X,Y,Z Vertex 3 {m}
  45.3375, 4.5732, 7.9248;                !- X,Y,Z Vertex 4 {m}

BuildingSurface:Detailed,
  MidFloor_Plenum_Ceiling_3,              !- Name
  Ceiling,                                !- Surface Type
  BTAP-Int-Ceiling,                       !- Construction Name
  ALL_ST=- undefined -_FL=Building Story 2_SCH=A, !- Zone Name
  MidFloor_Plenum,                        !- Space Name
  Surface,                                !- Outside Boundary Condition
  Perimeter_top_ZN_3_Floor,               !- Outside Boundary Condition Object
  NoSun,                                  !- Sun Exposure
  NoWind,                                 !- Wind Exposure
  ,                                       !- View Factor to Ground
  ,                                       !- Number of Vertices
  45.3375, 28.7006, 7.9248,               !- X,Y,Z Vertex 1 {m}
  49.911, 33.2738, 7.9248,                !- X,Y,Z Vertex 2 {m}
  0, 33.2738, 7.9248,                     !- X,Y,Z Vertex 3 {m}
  4.5732, 28.7006, 7.9248;                !- X,Y,Z Vertex 4 {m}

BuildingSurface:Detailed,
  MidFloor_Plenum_Ceiling_4,              !- Name
  Ceiling,                                !- Surface Type
  BTAP-Int-Ceiling,                       !- Construction Name
  ALL_ST=- undefined -_FL=Building Story 2_SCH=A, !- Zone Name
  MidFloor_Plenum,                        !- Space Name
  Surface,                                !- Outside Boundary Condition
  Perimeter_top_ZN_4_Floor,               !- Outside Boundary Condition Object
  NoSun,                                  !- Sun Exposure
  NoWind,                                 !- Wind Exposure
  ,                                       !- View Factor to Ground
  ,                                       !- Number of Vertices
  0, 0, 7.9248,                           !- X,Y,Z Vertex 1 {m}
  4.5732, 4.5732, 7.9248,                 !- X,Y,Z Vertex 2 {m}
  4.5732, 28.7006, 7.9248,                !- X,Y,Z Vertex 3 {m}
  0, 33.2738, 7.9248;                     !- X,Y,Z Vertex 4 {m}

BuildingSurface:Detailed,
  MidFloor_Plenum_Ceiling_5,              !- Name
  Ceiling,                                !- Surface Type
  BTAP-Int-Ceiling,                       !- Construction Name
  ALL_ST=- undefined -_FL=Building Story 2_SCH=A, !- Zone Name
  MidFloor_Plenum,                        !- Space Name
  Surface,                                !- Outside Boundary Condition
  Core_top_ZN_5_Floor,                    !- Outside Boundary Condition Object
  NoSun,                                  !- Sun Exposure
  NoWind,                                 !- Wind Exposure
  ,                                       !- View Factor to Ground
  ,                                       !- Number of Vertices
  45.3375, 4.5732, 7.9248,                !- X,Y,Z Vertex 1 {m}
  45.3375, 28.7006, 7.9248,               !- X,Y,Z Vertex 2 {m}
  4.5732, 28.7006, 7.9248,                !- X,Y,Z Vertex 3 {m}
  4.5732, 4.5732, 7.9248;                 !- X,Y,Z Vertex 4 {m}

BuildingSurface:Detailed,
  MidFloor_Plenum_Floor_1,                !- Name
  Floor,                                  !- Surface Type
  BTAP-Int-Floor,                         !- Construction Name
  ALL_ST=- undefined -_FL=Building Story 2_SCH=A, !- Zone Name
  MidFloor_Plenum,                        !- Space Name
  Surface,                                !- Outside Boundary Condition
  Perimeter_mid_ZN_1_Ceiling,             !- Outside Boundary Condition Object
  NoSun,                                  !- Sun Exposure
  NoWind,                                 !- Wind Exposure
  ,                                       !- View Factor to Ground
  ,                                       !- Number of Vertices
  45.3375, 4.5732, 6.7056,                !- X,Y,Z Vertex 1 {m}
  49.911, 0, 6.7056,                      !- X,Y,Z Vertex 2 {m}
  0, 0, 6.7056,                           !- X,Y,Z Vertex 3 {m}
  4.5732, 4.5732, 6.7056;                 !- X,Y,Z Vertex 4 {m}

BuildingSurface:Detailed,
  MidFloor_Plenum_Floor_2,                !- Name
  Floor,                                  !- Surface Type
  BTAP-Int-Floor,                         !- Construction Name
  ALL_ST=- undefined -_FL=Building Story 2_SCH=A, !- Zone Name
  MidFloor_Plenum,                        !- Space Name
  Surface,                                !- Outside Boundary Condition
  Perimeter_mid_ZN_2_Ceiling,             !- Outside Boundary Condition Object
  NoSun,                                  !- Sun Exposure
  NoWind,                                 !- Wind Exposure
  ,                                       !- View Factor to Ground
  ,                                       !- Number of Vertices
  49.911, 33.2738, 6.7056,                !- X,Y,Z Vertex 1 {m}
  49.911, 0, 6.7056,                      !- X,Y,Z Vertex 2 {m}
  45.3375, 4.5732, 6.7056,                !- X,Y,Z Vertex 3 {m}
  45.3375, 28.7006, 6.7056;               !- X,Y,Z Vertex 4 {m}

BuildingSurface:Detailed,
  MidFloor_Plenum_Floor_3,                !- Name
  Floor,                                  !- Surface Type
  BTAP-Int-Floor,                         !- Construction Name
  ALL_ST=- undefined -_FL=Building Story 2_SCH=A, !- Zone Name
  MidFloor_Plenum,                        !- Space Name
  Surface,                                !- Outside Boundary Condition
  Perimeter_mid_ZN_3_Ceiling,             !- Outside Boundary Condition Object
  NoSun,                                  !- Sun Exposure
  NoWind,                                 !- Wind Exposure
  ,                                       !- View Factor to Ground
  ,                                       !- Number of Vertices
  49.911, 33.2738, 6.7056,                !- X,Y,Z Vertex 1 {m}
  45.3375, 28.7006, 6.7056,               !- X,Y,Z Vertex 2 {m}
  4.5732, 28.7006, 6.7056,                !- X,Y,Z Vertex 3 {m}
  0, 33.2738, 6.7056;                     !- X,Y,Z Vertex 4 {m}

BuildingSurface:Detailed,
  MidFloor_Plenum_Floor_4,                !- Name
  Floor,                                  !- Surface Type
  BTAP-Int-Floor,                         !- Construction Name
  ALL_ST=- undefined -_FL=Building Story 2_SCH=A, !- Zone Name
  MidFloor_Plenum,                        !- Space Name
  Surface,                                !- Outside Boundary Condition
  Perimeter_mid_ZN_4_Ceiling,             !- Outside Boundary Condition Object
  NoSun,                                  !- Sun Exposure
  NoWind,                                 !- Wind Exposure
  ,                                       !- View Factor to Ground
  ,                                       !- Number of Vertices
  0, 33.2738, 6.7056,                     !- X,Y,Z Vertex 1 {m}
  4.5732, 28.7006, 6.7056,                !- X,Y,Z Vertex 2 {m}
  4.5732, 4.5732, 6.7056,                 !- X,Y,Z Vertex 3 {m}
  0, 0, 6.7056;                           !- X,Y,Z Vertex 4 {m}

BuildingSurface:Detailed,
  MidFloor_Plenum_Floor_5,                !- Name
  Floor,                                  !- Surface Type
  BTAP-Int-Floor,                         !- Construction Name
  ALL_ST=- undefined -_FL=Building Story 2_SCH=A, !- Zone Name
  MidFloor_Plenum,                        !- Space Name
  Surface,                                !- Outside Boundary Condition
  Core_mid_ceiling,                       !- Outside Boundary Condition Object
  NoSun,                                  !- Sun Exposure
  NoWind,                                 !- Wind Exposure
  ,                                       !- View Factor to Ground
  ,                                       !- Number of Vertices
  45.3375, 28.7006, 6.7056,               !- X,Y,Z Vertex 1 {m}
  45.3375, 4.5732, 6.7056,                !- X,Y,Z Vertex 2 {m}
  4.5732, 4.5732, 6.7056,                 !- X,Y,Z Vertex 3 {m}
  4.5732, 28.7006, 6.7056;                !- X,Y,Z Vertex 4 {m}

BuildingSurface:Detailed,
  Perimeter_mid_Plenum_Wall_East,         !- Name
  Wall,                                   !- Surface Type
  BTAP-Ext-Wall-Mass:U-0.29,              !- Construction Name
  ALL_ST=- undefined -_FL=Building Story 2_SCH=A, !- Zone Name
  MidFloor_Plenum,                        !- Space Name
  Outdoors,                               !- Outside Boundary Condition
  ,                                       !- Outside Boundary Condition Object
  SunExposed,                             !- Sun Exposure
  WindExposed,                            !- Wind Exposure
  ,                                       !- View Factor to Ground
  ,                                       !- Number of Vertices
  49.911, 0, 7.9248,                      !- X,Y,Z Vertex 1 {m}
  49.911, 0, 6.7056,                      !- X,Y,Z Vertex 2 {m}
  49.911, 33.2738, 6.7056,                !- X,Y,Z Vertex 3 {m}
  49.911, 33.2738, 7.9248;                !- X,Y,Z Vertex 4 {m}

BuildingSurface:Detailed,
  Perimeter_mid_Plenum_Wall_North,        !- Name
  Wall,                                   !- Surface Type
  BTAP-Ext-Wall-Mass:U-0.29,              !- Construction Name
  ALL_ST=- undefined -_FL=Building Story 2_SCH=A, !- Zone Name
  MidFloor_Plenum,                        !- Space Name
  Outdoors,                               !- Outside Boundary Condition
  ,                                       !- Outside Boundary Condition Object
  SunExposed,                             !- Sun Exposure
  WindExposed,                            !- Wind Exposure
  ,                                       !- View Factor to Ground
  ,                                       !- Number of Vertices
  49.911, 33.2738, 7.9248,                !- X,Y,Z Vertex 1 {m}
  49.911, 33.2738, 6.7056,                !- X,Y,Z Vertex 2 {m}
  0, 33.2738, 6.7056,                     !- X,Y,Z Vertex 3 {m}
  0, 33.2738, 7.9248;                     !- X,Y,Z Vertex 4 {m}

BuildingSurface:Detailed,
  Perimeter_mid_Plenum_Wall_South,        !- Name
  Wall,                                   !- Surface Type
  BTAP-Ext-Wall-Mass:U-0.29,              !- Construction Name
  ALL_ST=- undefined -_FL=Building Story 2_SCH=A, !- Zone Name
  MidFloor_Plenum,                        !- Space Name
  Outdoors,                               !- Outside Boundary Condition
  ,                                       !- Outside Boundary Condition Object
  SunExposed,                             !- Sun Exposure
  WindExposed,                            !- Wind Exposure
  ,                                       !- View Factor to Ground
  ,                                       !- Number of Vertices
  0, 0, 7.9248,                           !- X,Y,Z Vertex 1 {m}
  0, 0, 6.7056,                           !- X,Y,Z Vertex 2 {m}
  49.911, 0, 6.7056,                      !- X,Y,Z Vertex 3 {m}
  49.911, 0, 7.9248;                      !- X,Y,Z Vertex 4 {m}

BuildingSurface:Detailed,
  Perimeter_mid_Plenum_Wall_West,         !- Name
  Wall,                                   !- Surface Type
  BTAP-Ext-Wall-Mass:U-0.29,              !- Construction Name
  ALL_ST=- undefined -_FL=Building Story 2_SCH=A, !- Zone Name
  MidFloor_Plenum,                        !- Space Name
  Outdoors,                               !- Outside Boundary Condition
  ,                                       !- Outside Boundary Condition Object
  SunExposed,                             !- Sun Exposure
  WindExposed,                            !- Wind Exposure
  ,                                       !- View Factor to Ground
  ,                                       !- Number of Vertices
  0, 33.2738, 7.9248,                     !- X,Y,Z Vertex 1 {m}
  0, 33.2738, 6.7056,                     !- X,Y,Z Vertex 2 {m}
  0, 0, 6.7056,                           !- X,Y,Z Vertex 3 {m}
  0, 0, 7.9248;                           !- X,Y,Z Vertex 4 {m}

ZoneInfiltration:DesignFlowRate,
  MidFloor_Plenum Infiltration,           !- Name
  MidFloor_Plenum,                        !- Zone or ZoneList or Space or SpaceList Name
  Always On Discrete,                     !- Schedule Name
  Flow/ExteriorArea,                      !- Design Flow Rate Calculation Method
  ,                                       !- Design Flow Rate {m3/s}
  ,                                       !- Flow Rate per Floor Area {m3/s-m2}
  0.00471177345157376,                    !- Flow Rate per Exterior Surface Area {m3/s-m2}
  ,                                       !- Air Changes per Hour {1/hr}
  0,                                      !- Constant Term Coefficient
  0,                                      !- Temperature Term Coefficient
  0.224,                                  !- Velocity Term Coefficient
  0;                                      !- Velocity Squared Term Coefficient

Zone,
  ALL_ST=- undefined -_FL=Building Story 3_SCH=A, !- Name
  0,                                      !- Direction of Relative North {deg}
  0,                                      !- X Origin {m}
  0,                                      !- Y Origin {m}
  0,                                      !- Z Origin {m}
  ,                                       !- Type
  1,                                      !- Multiplier
  ,                                       !- Ceiling Height {m}
  ,                                       !- Volume {m3}
  ,                                       !- Floor Area {m2}
  ,                                       !- Zone Inside Convection Algorithm
  ,                                       !- Zone Outside Convection Algorithm
  No;                                     !- Part of Total Floor Area

Space,
  TopFloor_Plenum,                        !- Name
  ALL_ST=- undefined -_FL=Building Story 3_SCH=A, !- Zone Name
  ,                                       !- Ceiling Height {m}
  2024.76034789056,                       !- Volume {m3}
  ,                                       !- Floor Area {m2}
  Space Function - undefined -;           !- Space Type

BuildingSurface:Detailed,
  Building_Roof,                          !- Name
  Roof,                                   !- Surface Type
  BTAP-Ext-Roof-Metal:U-0.2,              !- Construction Name
  ALL_ST=- undefined -_FL=Building Story 3_SCH=A, !- Zone Name
  TopFloor_Plenum,                        !- Space Name
  Outdoors,                               !- Outside Boundary Condition
  ,                                       !- Outside Boundary Condition Object
  SunExposed,                             !- Sun Exposure
  WindExposed,                            !- Wind Exposure
  ,                                       !- View Factor to Ground
  ,                                       !- Number of Vertices
  49.911, 0, 11.8872,                     !- X,Y,Z Vertex 1 {m}
  49.911, 33.2738, 11.8872,               !- X,Y,Z Vertex 2 {m}
  0, 33.2738, 11.8872,                    !- X,Y,Z Vertex 3 {m}
  0, 0, 11.8872;                          !- X,Y,Z Vertex 4 {m}

BuildingSurface:Detailed,
  Perimeter_top_Plenum_Wall_East,         !- Name
  Wall,                                   !- Surface Type
  BTAP-Ext-Wall-Mass:U-0.29,              !- Construction Name
  ALL_ST=- undefined -_FL=Building Story 3_SCH=A, !- Zone Name
  TopFloor_Plenum,                        !- Space Name
  Outdoors,                               !- Outside Boundary Condition
  ,                                       !- Outside Boundary Condition Object
  SunExposed,                             !- Sun Exposure
  WindExposed,                            !- Wind Exposure
  ,                                       !- View Factor to Ground
  ,                                       !- Number of Vertices
  49.911, 0, 11.8872,                     !- X,Y,Z Vertex 1 {m}
  49.911, 0, 10.668,                      !- X,Y,Z Vertex 2 {m}
  49.911, 33.2738, 10.668,                !- X,Y,Z Vertex 3 {m}
  49.911, 33.2738, 11.8872;               !- X,Y,Z Vertex 4 {m}

BuildingSurface:Detailed,
  Perimeter_top_Plenum_Wall_North,        !- Name
  Wall,                                   !- Surface Type
  BTAP-Ext-Wall-Mass:U-0.29,              !- Construction Name
  ALL_ST=- undefined -_FL=Building Story 3_SCH=A, !- Zone Name
  TopFloor_Plenum,                        !- Space Name
  Outdoors,                               !- Outside Boundary Condition
  ,                                       !- Outside Boundary Condition Object
  SunExposed,                             !- Sun Exposure
  WindExposed,                            !- Wind Exposure
  ,                                       !- View Factor to Ground
  ,                                       !- Number of Vertices
  49.911, 33.2738, 11.8872,               !- X,Y,Z Vertex 1 {m}
  49.911, 33.2738, 10.668,                !- X,Y,Z Vertex 2 {m}
  0, 33.2738, 10.668,                     !- X,Y,Z Vertex 3 {m}
  0, 33.2738, 11.8872;                    !- X,Y,Z Vertex 4 {m}

BuildingSurface:Detailed,
  Perimeter_top_Plenum_Wall_South,        !- Name
  Wall,                                   !- Surface Type
  BTAP-Ext-Wall-Mass:U-0.29,              !- Construction Name
  ALL_ST=- undefined -_FL=Building Story 3_SCH=A, !- Zone Name
  TopFloor_Plenum,                        !- Space Name
  Outdoors,                               !- Outside Boundary Condition
  ,                                       !- Outside Boundary Condition Object
  SunExposed,                             !- Sun Exposure
  WindExposed,                            !- Wind Exposure
  ,                                       !- View Factor to Ground
  ,                                       !- Number of Vertices
  0, 0, 11.8872,                          !- X,Y,Z Vertex 1 {m}
  0, 0, 10.668,                           !- X,Y,Z Vertex 2 {m}
  49.911, 0, 10.668,                      !- X,Y,Z Vertex 3 {m}
  49.911, 0, 11.8872;                     !- X,Y,Z Vertex 4 {m}

BuildingSurface:Detailed,
  Perimeter_top_Plenum_Wall_West,         !- Name
  Wall,                                   !- Surface Type
  BTAP-Ext-Wall-Mass:U-0.29,              !- Construction Name
  ALL_ST=- undefined -_FL=Building Story 3_SCH=A, !- Zone Name
  TopFloor_Plenum,                        !- Space Name
  Outdoors,                               !- Outside Boundary Condition
  ,                                       !- Outside Boundary Condition Object
  SunExposed,                             !- Sun Exposure
  WindExposed,                            !- Wind Exposure
  ,                                       !- View Factor to Ground
  ,                                       !- Number of Vertices
  0, 33.2738, 11.8872,                    !- X,Y,Z Vertex 1 {m}
  0, 33.2738, 10.668,                     !- X,Y,Z Vertex 2 {m}
  0, 0, 10.668,                           !- X,Y,Z Vertex 3 {m}
  0, 0, 11.8872;                          !- X,Y,Z Vertex 4 {m}

BuildingSurface:Detailed,
  TopFloor_Plenum_Floor_1,                !- Name
  Floor,                                  !- Surface Type
  BTAP-Int-Floor,                         !- Construction Name
  ALL_ST=- undefined -_FL=Building Story 3_SCH=A, !- Zone Name
  TopFloor_Plenum,                        !- Space Name
  Surface,                                !- Outside Boundary Condition
  Perimeter_top_ZN_1_Ceiling,             !- Outside Boundary Condition Object
  NoSun,                                  !- Sun Exposure
  NoWind,                                 !- Wind Exposure
  ,                                       !- View Factor to Ground
  ,                                       !- Number of Vertices
  45.3375, 4.5732, 10.668,                !- X,Y,Z Vertex 1 {m}
  49.911, 0, 10.668,                      !- X,Y,Z Vertex 2 {m}
  0, 0, 10.668,                           !- X,Y,Z Vertex 3 {m}
  4.5732, 4.5732, 10.668;                 !- X,Y,Z Vertex 4 {m}

BuildingSurface:Detailed,
  TopFloor_Plenum_Floor_2,                !- Name
  Floor,                                  !- Surface Type
  BTAP-Int-Floor,                         !- Construction Name
  ALL_ST=- undefined -_FL=Building Story 3_SCH=A, !- Zone Name
  TopFloor_Plenum,                        !- Space Name
  Surface,                                !- Outside Boundary Condition
  Perimeter_top_ZN_2_Ceiling,             !- Outside Boundary Condition Object
  NoSun,                                  !- Sun Exposure
  NoWind,                                 !- Wind Exposure
  ,                                       !- View Factor to Ground
  ,                                       !- Number of Vertices
  49.911, 33.2738, 10.668,                !- X,Y,Z Vertex 1 {m}
  49.911, 0, 10.668,                      !- X,Y,Z Vertex 2 {m}
  45.3375, 4.5732, 10.668,                !- X,Y,Z Vertex 3 {m}
  45.3375, 28.7006, 10.668;               !- X,Y,Z Vertex 4 {m}

BuildingSurface:Detailed,
  TopFloor_Plenum_Floor_3,                !- Name
  Floor,                                  !- Surface Type
  BTAP-Int-Floor,                         !- Construction Name
  ALL_ST=- undefined -_FL=Building Story 3_SCH=A, !- Zone Name
  TopFloor_Plenum,                        !- Space Name
  Surface,                                !- Outside Boundary Condition
  Perimeter_top_ZN_3_Ceiling,             !- Outside Boundary Condition Object
  NoSun,                                  !- Sun Exposure
  NoWind,                                 !- Wind Exposure
  ,                                       !- View Factor to Ground
  ,                                       !- Number of Vertices
  49.911, 33.2738, 10.668,                !- X,Y,Z Vertex 1 {m}
  45.3375, 28.7006, 10.668,               !- X,Y,Z Vertex 2 {m}
  4.5732, 28.7006, 10.668,                !- X,Y,Z Vertex 3 {m}
  0, 33.2738, 10.668;                     !- X,Y,Z Vertex 4 {m}

BuildingSurface:Detailed,
  TopFloor_Plenum_Floor_4,                !- Name
  Floor,                                  !- Surface Type
  BTAP-Int-Floor,                         !- Construction Name
  ALL_ST=- undefined -_FL=Building Story 3_SCH=A, !- Zone Name
  TopFloor_Plenum,                        !- Space Name
  Surface,                                !- Outside Boundary Condition
  Perimeter_top_ZN_4_Ceiling,             !- Outside Boundary Condition Object
  NoSun,                                  !- Sun Exposure
  NoWind,                                 !- Wind Exposure
  ,                                       !- View Factor to Ground
  ,                                       !- Number of Vertices
  0, 33.2738, 10.668,                     !- X,Y,Z Vertex 1 {m}
  4.5732, 28.7006, 10.668,                !- X,Y,Z Vertex 2 {m}
  4.5732, 4.5732, 10.668,                 !- X,Y,Z Vertex 3 {m}
  0, 0, 10.668;                           !- X,Y,Z Vertex 4 {m}

BuildingSurface:Detailed,
  TopFloor_Plenum_Floor_5,                !- Name
  Floor,                                  !- Surface Type
  BTAP-Int-Floor,                         !- Construction Name
  ALL_ST=- undefined -_FL=Building Story 3_SCH=A, !- Zone Name
  TopFloor_Plenum,                        !- Space Name
  Surface,                                !- Outside Boundary Condition
  Core_top_ZN_5_Ceiling,                  !- Outside Boundary Condition Object
  NoSun,                                  !- Sun Exposure
  NoWind,                                 !- Wind Exposure
  ,                                       !- View Factor to Ground
  ,                                       !- Number of Vertices
  45.3375, 28.7006, 10.668,               !- X,Y,Z Vertex 1 {m}
  45.3375, 4.5732, 10.668,                !- X,Y,Z Vertex 2 {m}
  4.5732, 4.5732, 10.668,                 !- X,Y,Z Vertex 3 {m}
  4.5732, 28.7006, 10.668;                !- X,Y,Z Vertex 4 {m}

ZoneInfiltration:DesignFlowRate,
  TopFloor_Plenum Infiltration,           !- Name
  TopFloor_Plenum,                        !- Zone or ZoneList or Space or SpaceList Name
  Always On Discrete,                     !- Schedule Name
  Flow/ExteriorArea,                      !- Design Flow Rate Calculation Method
  ,                                       !- Design Flow Rate {m3/s}
  ,                                       !- Flow Rate per Floor Area {m3/s-m2}
  0.00471177345157376,                    !- Flow Rate per Exterior Surface Area {m3/s-m2}
  ,                                       !- Air Changes per Hour {1/hr}
  0,                                      !- Constant Term Coefficient
  0,                                      !- Temperature Term Coefficient
  0.224,                                  !- Velocity Term Coefficient
  0;                                      !- Velocity Squared Term Coefficient

Zone,
  ALL_ST=Office open plan_FL=Building Story 1_SCH=A, !- Name
  0,                                      !- Direction of Relative North {deg}
  0,                                      !- X Origin {m}
  0,                                      !- Y Origin {m}
  0,                                      !- Z Origin {m}
  ,                                       !- Type
  1,                                      !- Multiplier
  ,                                       !- Ceiling Height {m}
  ,                                       !- Volume {m3}
  ,                                       !- Floor Area {m2}
  ,                                       !- Zone Inside Convection Algorithm
  ,                                       !- Zone Outside Convection Algorithm
  Yes;                                    !- Part of Total Floor Area

Space,
  Core_bottom,                            !- Name
  ALL_ST=Office open plan_FL=Building Story 1_SCH=A, !- Zone Name
  ,                                       !- Ceiling Height {m}
  2698.03752381662,                       !- Volume {m3}
  ,                                       !- Floor Area {m2}
  Space Function Office open plan;        !- Space Type

SpaceList,
  Space Function Office open plan,        !- Name
  Perimeter_mid_ZN_4,                     !- Space Name 1
  Core_bottom,                            !- Space Name 2
  Perimeter_top_ZN_3,                     !- Space Name 3
  Perimeter_mid_ZN_3,                     !- Space Name 4
  Core_mid,                               !- Space Name 5
  Perimeter_top_ZN_1,                     !- Space Name 6
  Perimeter_top_ZN_2,                     !- Space Name 7
  Core_top,                               !- Space Name 8
  Perimeter_bot_ZN_4,                     !- Space Name 9
  Perimeter_top_ZN_4,                     !- Space Name 10
  Perimeter_mid_ZN_2,                     !- Space Name 11
  Perimeter_bot_ZN_3,                     !- Space Name 12
  Perimeter_bot_ZN_1,                     !- Space Name 13
  Perimeter_mid_ZN_1,                     !- Space Name 14
  Perimeter_bot_ZN_2;                     !- Space Name 15

Lights,
  Space Function Office open plan Lights, !- Name
  Space Function Office open plan,        !- Zone or ZoneList or Space or SpaceList Name
  NECB-A-Lighting,                        !- Schedule Name
  Watts/Area,                             !- Design Level Calculation Method
  ,                                       !- Lighting Level {W}
  6.60000638299888,                       !- Watts per Floor Area {W/m2}
  ,                                       !- Watts per Person {W/person}
  ,                                       !- Return Air Fraction
  0.5,                                    !- Fraction Radiant
  0.2,                                    !- Fraction Visible
  1,                                      !- Fraction Replaceable
  General;                                !- End-Use Subcategory

ScheduleTypeLimits,
  Fractional,                             !- Name
  0,                                      !- Lower Limit Value {BasedOnField A3}
  1,                                      !- Upper Limit Value {BasedOnField A3}
  Continuous;                             !- Numeric Type

Schedule:Day:Interval,
  NECB-A-Lighting Sun|Hol Day,            !- Name
  Fractional,                             !- Schedule Type Limits Name
  No,                                     !- Interpolate to Timestep
  24:00,                                  !- Time 1 {hh:mm}
  0.05;                                   !- Value Until Time 1

Schedule:Day:Interval,
  NECB-A-Lighting Default|Wkdy Day,       !- Name
  Fractional,                             !- Schedule Type Limits Name
  No,                                     !- Interpolate to Timestep
  07:00,                                  !- Time 1 {hh:mm}
  0.05,                                   !- Value Until Time 1
  08:00,                                  !- Time 2 {hh:mm}
  0.3,                                    !- Value Until Time 2
  09:00,                                  !- Time 3 {hh:mm}
  0.8,                                    !- Value Until Time 3
  17:00,                                  !- Time 4 {hh:mm}
  0.9,                                    !- Value Until Time 4
  18:00,                                  !- Time 5 {hh:mm}
  0.8,                                    !- Value Until Time 5
  19:00,                                  !- Time 6 {hh:mm}
  0.5,                                    !- Value Until Time 6
  21:00,                                  !- Time 7 {hh:mm}
  0.3,                                    !- Value Until Time 7
  23:00,                                  !- Time 8 {hh:mm}
  0.1,                                    !- Value Until Time 8
  24:00,                                  !- Time 9 {hh:mm}
  0.05;                                   !- Value Until Time 9

Schedule:Day:Interval,
  NECB-A-Lighting Sat Day,                !- Name
  Fractional,                             !- Schedule Type Limits Name
  No,                                     !- Interpolate to Timestep
  24:00,                                  !- Time 1 {hh:mm}
  0.05;                                   !- Value Until Time 1

Schedule:Week:Daily,
  NECB-A-Lighting Week Rule - Jan1-Dec31, !- Name
  NECB-A-Lighting Sun|Hol Day,            !- Sunday Schedule:Day Name
  NECB-A-Lighting Default|Wkdy Day,       !- Monday Schedule:Day Name
  NECB-A-Lighting Default|Wkdy Day,       !- Tuesday Schedule:Day Name
  NECB-A-Lighting Default|Wkdy Day,       !- Wednesday Schedule:Day Name
  NECB-A-Lighting Default|Wkdy Day,       !- Thursday Schedule:Day Name
  NECB-A-Lighting Default|Wkdy Day,       !- Friday Schedule:Day Name
  NECB-A-Lighting Sat Day,                !- Saturday Schedule:Day Name
  NECB-A-Lighting Default,                !- Holiday Schedule:Day Name
  NECB-A-Lighting Default,                !- SummerDesignDay Schedule:Day Name
  NECB-A-Lighting Default,                !- WinterDesignDay Schedule:Day Name
  NECB-A-Lighting Default,                !- CustomDay1 Schedule:Day Name
  NECB-A-Lighting Default;                !- CustomDay2 Schedule:Day Name

Schedule:Year,
  NECB-A-Lighting,                        !- Name
  Fractional,                             !- Schedule Type Limits Name
  NECB-A-Lighting Week Rule - Jan1-Dec31, !- Schedule:Week Name 1
  1,                                      !- Start Month 1
  1,                                      !- Start Day 1
  12,                                     !- End Month 1
  31;                                     !- End Day 1

Schedule:Day:Interval,
  NECB-A-Lighting Default,                !- Name
  Fractional,                             !- Schedule Type Limits Name
  No,                                     !- Interpolate to Timestep
  07:00,                                  !- Time 1 {hh:mm}
  0.05,                                   !- Value Until Time 1
  08:00,                                  !- Time 2 {hh:mm}
  0.3,                                    !- Value Until Time 2
  09:00,                                  !- Time 3 {hh:mm}
  0.8,                                    !- Value Until Time 3
  17:00,                                  !- Time 4 {hh:mm}
  0.9,                                    !- Value Until Time 4
  18:00,                                  !- Time 5 {hh:mm}
  0.8,                                    !- Value Until Time 5
  19:00,                                  !- Time 6 {hh:mm}
  0.5,                                    !- Value Until Time 6
  21:00,                                  !- Time 7 {hh:mm}
  0.3,                                    !- Value Until Time 7
  23:00,                                  !- Time 8 {hh:mm}
  0.1,                                    !- Value Until Time 8
  24:00,                                  !- Time 9 {hh:mm}
  0.05;                                   !- Value Until Time 9

People,
  Space Function Office open plan People, !- Name
  Space Function Office open plan,        !- Zone or ZoneList or Space or SpaceList Name
  NECB-A-Occupancy,                       !- Number of People Schedule Name
  People/Area,                            !- Number of People Calculation Method
  ,                                       !- Number of People
  0.0500181710813649,                     !- People per Floor Area {person/m2}
  ,                                       !- Floor Area per Person {m2/person}
  0.3,                                    !- Fraction Radiant
  ,                                       !- Sensible Heat Fraction
  NECB-Activity,                          !- Activity Level Schedule Name
  ,                                       !- Carbon Dioxide Generation Rate {m3/s-W}
  ,                                       !- Enable ASHRAE 55 Comfort Warnings
  ,                                       !- Mean Radiant Temperature Calculation Type
  ,                                       !- Surface Name/Angle Factor List Name
  Work Efficiency Schedule,               !- Work Efficiency Schedule Name
  ,                                       !- Clothing Insulation Calculation Method
  ,                                       !- Clothing Insulation Calculation Method Schedule Name
  Clothing Schedule,                      !- Clothing Insulation Schedule Name
  Air Velocity Schedule;                  !- Air Velocity Schedule Name

Schedule:Day:Interval,
  NECB-A-Occupancy Sun|Hol Day,           !- Name
  Fractional,                             !- Schedule Type Limits Name
  No,                                     !- Interpolate to Timestep
  24:00,                                  !- Time 1 {hh:mm}
  0;                                      !- Value Until Time 1

Schedule:Day:Interval,
  NECB-A-Occupancy Default|Wkdy Day,      !- Name
  Fractional,                             !- Schedule Type Limits Name
  No,                                     !- Interpolate to Timestep
  07:00,                                  !- Time 1 {hh:mm}
  0,                                      !- Value Until Time 1
  08:00,                                  !- Time 2 {hh:mm}
  0.1,                                    !- Value Until Time 2
  09:00,                                  !- Time 3 {hh:mm}
  0.7,                                    !- Value Until Time 3
  12:00,                                  !- Time 4 {hh:mm}
  0.9,                                    !- Value Until Time 4
  14:00,                                  !- Time 5 {hh:mm}
  0.5,                                    !- Value Until Time 5
  17:00,                                  !- Time 6 {hh:mm}
  0.9,                                    !- Value Until Time 6
  18:00,                                  !- Time 7 {hh:mm}
  0.7,                                    !- Value Until Time 7
  19:00,                                  !- Time 8 {hh:mm}
  0.3,                                    !- Value Until Time 8
  23:00,                                  !- Time 9 {hh:mm}
  0.1,                                    !- Value Until Time 9
  24:00,                                  !- Time 10 {hh:mm}
  0;                                      !- Value Until Time 10

Schedule:Day:Interval,
  NECB-A-Occupancy Sat Day,               !- Name
  Fractional,                             !- Schedule Type Limits Name
  No,                                     !- Interpolate to Timestep
  24:00,                                  !- Time 1 {hh:mm}
  0;                                      !- Value Until Time 1

Schedule:Week:Daily,
  NECB-A-Occupancy Week Rule - Jan1-Dec31, !- Name
  NECB-A-Occupancy Sun|Hol Day,           !- Sunday Schedule:Day Name
  NECB-A-Occupancy Default|Wkdy Day,      !- Monday Schedule:Day Name
  NECB-A-Occupancy Default|Wkdy Day,      !- Tuesday Schedule:Day Name
  NECB-A-Occupancy Default|Wkdy Day,      !- Wednesday Schedule:Day Name
  NECB-A-Occupancy Default|Wkdy Day,      !- Thursday Schedule:Day Name
  NECB-A-Occupancy Default|Wkdy Day,      !- Friday Schedule:Day Name
  NECB-A-Occupancy Sat Day,               !- Saturday Schedule:Day Name
  NECB-A-Occupancy Default,               !- Holiday Schedule:Day Name
  NECB-A-Occupancy Default,               !- SummerDesignDay Schedule:Day Name
  NECB-A-Occupancy Default,               !- WinterDesignDay Schedule:Day Name
  NECB-A-Occupancy Default,               !- CustomDay1 Schedule:Day Name
  NECB-A-Occupancy Default;               !- CustomDay2 Schedule:Day Name

Schedule:Year,
  NECB-A-Occupancy,                       !- Name
  Fractional,                             !- Schedule Type Limits Name
  NECB-A-Occupancy Week Rule - Jan1-Dec31, !- Schedule:Week Name 1
  1,                                      !- Start Month 1
  1,                                      !- Start Day 1
  12,                                     !- End Month 1
  31;                                     !- End Day 1

Schedule:Day:Interval,
  NECB-A-Occupancy Default,               !- Name
  Fractional,                             !- Schedule Type Limits Name
  No,                                     !- Interpolate to Timestep
  07:00,                                  !- Time 1 {hh:mm}
  0,                                      !- Value Until Time 1
  08:00,                                  !- Time 2 {hh:mm}
  0.1,                                    !- Value Until Time 2
  09:00,                                  !- Time 3 {hh:mm}
  0.7,                                    !- Value Until Time 3
  12:00,                                  !- Time 4 {hh:mm}
  0.9,                                    !- Value Until Time 4
  14:00,                                  !- Time 5 {hh:mm}
  0.5,                                    !- Value Until Time 5
  17:00,                                  !- Time 6 {hh:mm}
  0.9,                                    !- Value Until Time 6
  18:00,                                  !- Time 7 {hh:mm}
  0.7,                                    !- Value Until Time 7
  19:00,                                  !- Time 8 {hh:mm}
  0.3,                                    !- Value Until Time 8
  23:00,                                  !- Time 9 {hh:mm}
  0.1,                                    !- Value Until Time 9
  24:00,                                  !- Time 10 {hh:mm}
  0;                                      !- Value Until Time 10

ScheduleTypeLimits,
  ActivityLevel,                          !- Name
  0,                                      !- Lower Limit Value {BasedOnField A3}
  ,                                       !- Upper Limit Value {BasedOnField A3}
  Continuous,                             !- Numeric Type
  activitylevel;                          !- Unit Type

Schedule:Day:Interval,
  NECB-Activity Default,                  !- Name
  ActivityLevel,                          !- Schedule Type Limits Name
  No,                                     !- Interpolate to Timestep
  24:00,                                  !- Time 1 {hh:mm}
  130;                                    !- Value Until Time 1

Schedule:Week:Daily,
  NECB-Activity Week Rule - Jan1-Dec31,   !- Name
  NECB-Activity Default,                  !- Sunday Schedule:Day Name
  NECB-Activity Default,                  !- Monday Schedule:Day Name
  NECB-Activity Default,                  !- Tuesday Schedule:Day Name
  NECB-Activity Default,                  !- Wednesday Schedule:Day Name
  NECB-Activity Default,                  !- Thursday Schedule:Day Name
  NECB-Activity Default,                  !- Friday Schedule:Day Name
  NECB-Activity Default,                  !- Saturday Schedule:Day Name
  NECB-Activity Default,                  !- Holiday Schedule:Day Name
  NECB-Activity Summer Design Day,        !- SummerDesignDay Schedule:Day Name
  NECB-Activity Winter Design Day,        !- WinterDesignDay Schedule:Day Name
  NECB-Activity Default,                  !- CustomDay1 Schedule:Day Name
  NECB-Activity Default;                  !- CustomDay2 Schedule:Day Name

Schedule:Year,
  NECB-Activity,                          !- Name
  ActivityLevel,                          !- Schedule Type Limits Name
  NECB-Activity Week Rule - Jan1-Dec31,   !- Schedule:Week Name 1
  1,                                      !- Start Month 1
  1,                                      !- Start Day 1
  12,                                     !- End Month 1
  31;                                     !- End Day 1

Schedule:Day:Interval,
  NECB-Activity Summer Design Day,        !- Name
  ActivityLevel,                          !- Schedule Type Limits Name
  No,                                     !- Interpolate to Timestep
  24:00,                                  !- Time 1 {hh:mm}
  130;                                    !- Value Until Time 1

Schedule:Day:Interval,
  NECB-Activity Winter Design Day,        !- Name
  ActivityLevel,                          !- Schedule Type Limits Name
  No,                                     !- Interpolate to Timestep
  24:00,                                  !- Time 1 {hh:mm}
  130;                                    !- Value Until Time 1

Schedule:Day:Interval,
  Work Efficiency Schedule Default,       !- Name
  Fractional,                             !- Schedule Type Limits Name
  No,                                     !- Interpolate to Timestep
  24:00,                                  !- Time 1 {hh:mm}
  0;                                      !- Value Until Time 1

Schedule:Week:Daily,
  Work Efficiency Schedule Week Rule - Jan1-Dec31, !- Name
  Work Efficiency Schedule Default,       !- Sunday Schedule:Day Name
  Work Efficiency Schedule Default,       !- Monday Schedule:Day Name
  Work Efficiency Schedule Default,       !- Tuesday Schedule:Day Name
  Work Efficiency Schedule Default,       !- Wednesday Schedule:Day Name
  Work Efficiency Schedule Default,       !- Thursday Schedule:Day Name
  Work Efficiency Schedule Default,       !- Friday Schedule:Day Name
  Work Efficiency Schedule Default,       !- Saturday Schedule:Day Name
  Work Efficiency Schedule Default,       !- Holiday Schedule:Day Name
  Work Efficiency Schedule Default,       !- SummerDesignDay Schedule:Day Name
  Work Efficiency Schedule Default,       !- WinterDesignDay Schedule:Day Name
  Work Efficiency Schedule Default,       !- CustomDay1 Schedule:Day Name
  Work Efficiency Schedule Default;       !- CustomDay2 Schedule:Day Name

Schedule:Year,
  Work Efficiency Schedule,               !- Name
  Fractional,                             !- Schedule Type Limits Name
  Work Efficiency Schedule Week Rule - Jan1-Dec31, !- Schedule:Week Name 1
  1,                                      !- Start Month 1
  1,                                      !- Start Day 1
  12,                                     !- End Month 1
  31;                                     !- End Day 1

ScheduleTypeLimits,
  Any Number;                             !- Name

Schedule:Day:Interval,
  Clothing Schedule Default Winter Clothes, !- Name
  Any Number,                             !- Schedule Type Limits Name
  No,                                     !- Interpolate to Timestep
  24:00,                                  !- Time 1 {hh:mm}
  1;                                      !- Value Until Time 1

Schedule:Week:Daily,
  Clothing Schedule Week Rule - Jan1-Dec31, !- Name
  Clothing Schedule Default Winter Clothes, !- Sunday Schedule:Day Name
  Clothing Schedule Default Winter Clothes, !- Monday Schedule:Day Name
  Clothing Schedule Default Winter Clothes, !- Tuesday Schedule:Day Name
  Clothing Schedule Default Winter Clothes, !- Wednesday Schedule:Day Name
  Clothing Schedule Default Winter Clothes, !- Thursday Schedule:Day Name
  Clothing Schedule Default Winter Clothes, !- Friday Schedule:Day Name
  Clothing Schedule Default Winter Clothes, !- Saturday Schedule:Day Name
  Clothing Schedule Default Winter Clothes, !- Holiday Schedule:Day Name
  Clothing Schedule Default Winter Clothes, !- SummerDesignDay Schedule:Day Name
  Clothing Schedule Default Winter Clothes, !- WinterDesignDay Schedule:Day Name
  Clothing Schedule Default Winter Clothes, !- CustomDay1 Schedule:Day Name
  Clothing Schedule Default Winter Clothes; !- CustomDay2 Schedule:Day Name

Schedule:Year,
  Clothing Schedule,                      !- Name
  Any Number,                             !- Schedule Type Limits Name
  Clothing Schedule Week Rule - Jan1-Dec31, !- Schedule:Week Name 1
  1,                                      !- Start Month 1
  1,                                      !- Start Day 1
  12,                                     !- End Month 1
  31;                                     !- End Day 1

Schedule:Day:Interval,
  Clothing Schedule Summer Clothes,       !- Name
  Any Number,                             !- Schedule Type Limits Name
  No,                                     !- Interpolate to Timestep
  24:00,                                  !- Time 1 {hh:mm}
  0.5;                                    !- Value Until Time 1

ScheduleTypeLimits,
  Velocity,                               !- Name
  0,                                      !- Lower Limit Value {BasedOnField A3}
  ,                                       !- Upper Limit Value {BasedOnField A3}
  Continuous,                             !- Numeric Type
  velocity;                               !- Unit Type

Schedule:Day:Interval,
  Air Velocity Schedule Default,          !- Name
  Velocity,                               !- Schedule Type Limits Name
  No,                                     !- Interpolate to Timestep
  24:00,                                  !- Time 1 {hh:mm}
  0.2;                                    !- Value Until Time 1

Schedule:Week:Daily,
  Air Velocity Schedule Week Rule - Jan1-Dec31, !- Name
  Air Velocity Schedule Default,          !- Sunday Schedule:Day Name
  Air Velocity Schedule Default,          !- Monday Schedule:Day Name
  Air Velocity Schedule Default,          !- Tuesday Schedule:Day Name
  Air Velocity Schedule Default,          !- Wednesday Schedule:Day Name
  Air Velocity Schedule Default,          !- Thursday Schedule:Day Name
  Air Velocity Schedule Default,          !- Friday Schedule:Day Name
  Air Velocity Schedule Default,          !- Saturday Schedule:Day Name
  Air Velocity Schedule Default,          !- Holiday Schedule:Day Name
  Air Velocity Schedule Default,          !- SummerDesignDay Schedule:Day Name
  Air Velocity Schedule Default,          !- WinterDesignDay Schedule:Day Name
  Air Velocity Schedule Default,          !- CustomDay1 Schedule:Day Name
  Air Velocity Schedule Default;          !- CustomDay2 Schedule:Day Name

Schedule:Year,
  Air Velocity Schedule,                  !- Name
  Velocity,                               !- Schedule Type Limits Name
  Air Velocity Schedule Week Rule - Jan1-Dec31, !- Schedule:Week Name 1
  1,                                      !- Start Month 1
  1,                                      !- Start Day 1
  12,                                     !- End Month 1
  31;                                     !- End Day 1

ElectricEquipment,
  Space Function Office open plan Elec Equip, !- Name
  Space Function Office open plan,        !- Zone or ZoneList or Space or SpaceList Name
  NECB-A-Electric-Equipment,              !- Schedule Name
  Watts/Area,                             !- Design Level Calculation Method
  ,                                       !- Design Level {W}
  7.50272566220473,                       !- Watts per Floor Area {W/m2}
  ,                                       !- Watts per Person {W/person}
  ,                                       !- Fraction Latent
  0.5,                                    !- Fraction Radiant
  ,                                       !- Fraction Lost
  General;                                !- End-Use Subcategory

Schedule:Day:Interval,
  NECB-A-Electric-Equipment Sun|Hol Day,  !- Name
  Fractional,                             !- Schedule Type Limits Name
  No,                                     !- Interpolate to Timestep
  24:00,                                  !- Time 1 {hh:mm}
  0.2;                                    !- Value Until Time 1

Schedule:Day:Interval,
  NECB-A-Electric-Equipment Default|Wkdy Day, !- Name
  Fractional,                             !- Schedule Type Limits Name
  No,                                     !- Interpolate to Timestep
  07:00,                                  !- Time 1 {hh:mm}
  0.2,                                    !- Value Until Time 1
  08:00,                                  !- Time 2 {hh:mm}
  0.3,                                    !- Value Until Time 2
  09:00,                                  !- Time 3 {hh:mm}
  0.8,                                    !- Value Until Time 3
  18:00,                                  !- Time 4 {hh:mm}
  0.9,                                    !- Value Until Time 4
  19:00,                                  !- Time 5 {hh:mm}
  0.5,                                    !- Value Until Time 5
  21:00,                                  !- Time 6 {hh:mm}
  0.3,                                    !- Value Until Time 6
  24:00,                                  !- Time 7 {hh:mm}
  0.2;                                    !- Value Until Time 7

Schedule:Day:Interval,
  NECB-A-Electric-Equipment Sat Day,      !- Name
  Fractional,                             !- Schedule Type Limits Name
  No,                                     !- Interpolate to Timestep
  24:00,                                  !- Time 1 {hh:mm}
  0.2;                                    !- Value Until Time 1

Schedule:Week:Daily,
  NECB-A-Electric-Equipment Week Rule - Jan1-Dec31, !- Name
  NECB-A-Electric-Equipment Sun|Hol Day,  !- Sunday Schedule:Day Name
  NECB-A-Electric-Equipment Default|Wkdy Day, !- Monday Schedule:Day Name
  NECB-A-Electric-Equipment Default|Wkdy Day, !- Tuesday Schedule:Day Name
  NECB-A-Electric-Equipment Default|Wkdy Day, !- Wednesday Schedule:Day Name
  NECB-A-Electric-Equipment Default|Wkdy Day, !- Thursday Schedule:Day Name
  NECB-A-Electric-Equipment Default|Wkdy Day, !- Friday Schedule:Day Name
  NECB-A-Electric-Equipment Sat Day,      !- Saturday Schedule:Day Name
  NECB-A-Electric-Equipment Default,      !- Holiday Schedule:Day Name
  NECB-A-Electric-Equipment Default,      !- SummerDesignDay Schedule:Day Name
  NECB-A-Electric-Equipment Default,      !- WinterDesignDay Schedule:Day Name
  NECB-A-Electric-Equipment Default,      !- CustomDay1 Schedule:Day Name
  NECB-A-Electric-Equipment Default;      !- CustomDay2 Schedule:Day Name

Schedule:Year,
  NECB-A-Electric-Equipment,              !- Name
  Fractional,                             !- Schedule Type Limits Name
  NECB-A-Electric-Equipment Week Rule - Jan1-Dec31, !- Schedule:Week Name 1
  1,                                      !- Start Month 1
  1,                                      !- Start Day 1
  12,                                     !- End Month 1
  31;                                     !- End Day 1

Schedule:Day:Interval,
  NECB-A-Electric-Equipment Default,      !- Name
  Fractional,                             !- Schedule Type Limits Name
  No,                                     !- Interpolate to Timestep
  07:00,                                  !- Time 1 {hh:mm}
  0.2,                                    !- Value Until Time 1
  08:00,                                  !- Time 2 {hh:mm}
  0.3,                                    !- Value Until Time 2
  09:00,                                  !- Time 3 {hh:mm}
  0.8,                                    !- Value Until Time 3
  18:00,                                  !- Time 4 {hh:mm}
  0.9,                                    !- Value Until Time 4
  19:00,                                  !- Time 5 {hh:mm}
  0.5,                                    !- Value Until Time 5
  21:00,                                  !- Time 6 {hh:mm}
  0.3,                                    !- Value Until Time 6
  24:00,                                  !- Time 7 {hh:mm}
  0.2;                                    !- Value Until Time 7

BuildingSurface:Detailed,
  Core_bottom_ceiling,                    !- Name
  Ceiling,                                !- Surface Type
  BTAP-Int-Ceiling,                       !- Construction Name
  ALL_ST=Office open plan_FL=Building Story 1_SCH=A, !- Zone Name
  Core_bottom,                            !- Space Name
  Surface,                                !- Outside Boundary Condition
  FirstFloor_Plenum_Floor_5,              !- Outside Boundary Condition Object
  NoSun,                                  !- Sun Exposure
  NoWind,                                 !- Wind Exposure
  ,                                       !- View Factor to Ground
  ,                                       !- Number of Vertices
  45.3375, 4.5732, 2.7432,                !- X,Y,Z Vertex 1 {m}
  45.3375, 28.7006, 2.7432,               !- X,Y,Z Vertex 2 {m}
  4.5732, 28.7006, 2.7432,                !- X,Y,Z Vertex 3 {m}
  4.5732, 4.5732, 2.7432;                 !- X,Y,Z Vertex 4 {m}

BuildingSurface:Detailed,
  Core_bot_ZN_5_Floor,                    !- Name
  Floor,                                  !- Surface Type
  BTAP-Grnd-Floor-Mass:U-0.757_std,       !- Construction Name
  ALL_ST=Office open plan_FL=Building Story 1_SCH=A, !- Zone Name
  Core_bottom,                            !- Space Name
  Foundation,                             !- Outside Boundary Condition
  Bldg Kiva Foundation,                   !- Outside Boundary Condition Object
  NoSun,                                  !- Sun Exposure
  NoWind,                                 !- Wind Exposure
  ,                                       !- View Factor to Ground
  ,                                       !- Number of Vertices
  45.3375, 28.7006, 0,                    !- X,Y,Z Vertex 1 {m}
  45.3375, 4.5732, 0,                     !- X,Y,Z Vertex 2 {m}
  4.5732, 4.5732, 0,                      !- X,Y,Z Vertex 3 {m}
  4.5732, 28.7006, 0;                     !- X,Y,Z Vertex 4 {m}

SurfaceProperty:ExposedFoundationPerimeter,
  Core_bot_ZN_5_Floor,                    !- Surface Name
  TotalExposedPerimeter,                  !- Exposed Perimeter Calculation Method
  0,                                      !- Total Exposed Perimeter {m}
  ;                                       !- Exposed Perimeter Fraction {dimensionless}

BuildingSurface:Detailed,
  Core_bot_ZN_5_Wall_East,                !- Name
  Wall,                                   !- Surface Type
  BTAP-Int-Wall,                          !- Construction Name
  ALL_ST=Office open plan_FL=Building Story 1_SCH=A, !- Zone Name
  Core_bottom,                            !- Space Name
  Surface,                                !- Outside Boundary Condition
  Perimeter_bot_ZN_2_Wall_West,           !- Outside Boundary Condition Object
  NoSun,                                  !- Sun Exposure
  NoWind,                                 !- Wind Exposure
  ,                                       !- View Factor to Ground
  ,                                       !- Number of Vertices
  45.3375, 4.5732, 2.7432,                !- X,Y,Z Vertex 1 {m}
  45.3375, 4.5732, 0,                     !- X,Y,Z Vertex 2 {m}
  45.3375, 28.7006, 0,                    !- X,Y,Z Vertex 3 {m}
  45.3375, 28.7006, 2.7432;               !- X,Y,Z Vertex 4 {m}

BuildingSurface:Detailed,
  Core_bot_ZN_5_Wall_North,               !- Name
  Wall,                                   !- Surface Type
  BTAP-Int-Wall,                          !- Construction Name
  ALL_ST=Office open plan_FL=Building Story 1_SCH=A, !- Zone Name
  Core_bottom,                            !- Space Name
  Surface,                                !- Outside Boundary Condition
  Perimeter_bot_ZN_3_Wall_South,          !- Outside Boundary Condition Object
  NoSun,                                  !- Sun Exposure
  NoWind,                                 !- Wind Exposure
  ,                                       !- View Factor to Ground
  ,                                       !- Number of Vertices
  45.3375, 28.7006, 2.7432,               !- X,Y,Z Vertex 1 {m}
  45.3375, 28.7006, 0,                    !- X,Y,Z Vertex 2 {m}
  4.5732, 28.7006, 0,                     !- X,Y,Z Vertex 3 {m}
  4.5732, 28.7006, 2.7432;                !- X,Y,Z Vertex 4 {m}

BuildingSurface:Detailed,
  Core_bot_ZN_5_Wall_South,               !- Name
  Wall,                                   !- Surface Type
  BTAP-Int-Wall,                          !- Construction Name
  ALL_ST=Office open plan_FL=Building Story 1_SCH=A, !- Zone Name
  Core_bottom,                            !- Space Name
  Surface,                                !- Outside Boundary Condition
  Perimeter_bot_ZN_1_Wall_North,          !- Outside Boundary Condition Object
  NoSun,                                  !- Sun Exposure
  NoWind,                                 !- Wind Exposure
  ,                                       !- View Factor to Ground
  ,                                       !- Number of Vertices
  4.5732, 4.5732, 2.7432,                 !- X,Y,Z Vertex 1 {m}
  4.5732, 4.5732, 0,                      !- X,Y,Z Vertex 2 {m}
  45.3375, 4.5732, 0,                     !- X,Y,Z Vertex 3 {m}
  45.3375, 4.5732, 2.7432;                !- X,Y,Z Vertex 4 {m}

BuildingSurface:Detailed,
  Core_bot_ZN_5_Wall_West,                !- Name
  Wall,                                   !- Surface Type
  BTAP-Int-Wall,                          !- Construction Name
  ALL_ST=Office open plan_FL=Building Story 1_SCH=A, !- Zone Name
  Core_bottom,                            !- Space Name
  Surface,                                !- Outside Boundary Condition
  Perimeter_bot_ZN_4_Wall_East,           !- Outside Boundary Condition Object
  NoSun,                                  !- Sun Exposure
  NoWind,                                 !- Wind Exposure
  ,                                       !- View Factor to Ground
  ,                                       !- Number of Vertices
  4.5732, 28.7006, 2.7432,                !- X,Y,Z Vertex 1 {m}
  4.5732, 28.7006, 0,                     !- X,Y,Z Vertex 2 {m}
  4.5732, 4.5732, 0,                      !- X,Y,Z Vertex 3 {m}
  4.5732, 4.5732, 2.7432;                 !- X,Y,Z Vertex 4 {m}

ZoneControl:Thermostat,
  ALL_ST=Office open plan_FL=Building Story 1_SCH=A Thermostat, !- Name
  ALL_ST=Office open plan_FL=Building Story 1_SCH=A, !- Zone or ZoneList Name
  ALL_ST=Office open plan_FL=Building Story 1_SCH=A Thermostat Schedule, !- Control Type Schedule Name
  ThermostatSetpoint:DualSetpoint,        !- Control 1 Object Type
  Space Function Office open plan Thermostat 36, !- Control 1 Name
  ,                                       !- Control 2 Object Type
  ,                                       !- Control 2 Name
  ,                                       !- Control 3 Object Type
  ,                                       !- Control 3 Name
  ,                                       !- Control 4 Object Type
  ,                                       !- Control 4 Name
  0;                                      !- Temperature Difference Between Cutout And Setpoint {deltaC}

Schedule:Compact,
  ALL_ST=Office open plan_FL=Building Story 1_SCH=A Thermostat Schedule, !- Name
  ALL_ST=Office open plan_FL=Building Story 1_SCH=A Thermostat Schedule Type Limits, !- Schedule Type Limits Name
  Through: 12/31,                         !- Field 1
  For: AllDays,                           !- Field 2
  Until: 24:00,                           !- Field 3
  4;                                      !- Field 4

ScheduleTypeLimits,
  ALL_ST=Office open plan_FL=Building Story 1_SCH=A Thermostat Schedule Type Limits, !- Name
  0,                                      !- Lower Limit Value {BasedOnField A3}
  4,                                      !- Upper Limit Value {BasedOnField A3}
  DISCRETE;                               !- Numeric Type

ThermostatSetpoint:DualSetpoint,
  Space Function Office open plan Thermostat 36, !- Name
  NECB-A-Thermostat Setpoint-Heating,     !- Heating Setpoint Temperature Schedule Name
  NECB-A-Thermostat Setpoint-Cooling;     !- Cooling Setpoint Temperature Schedule Name

ScheduleTypeLimits,
  Temperature,                            !- Name
  ,                                       !- Lower Limit Value {BasedOnField A3}
  ,                                       !- Upper Limit Value {BasedOnField A3}
  Continuous,                             !- Numeric Type
  temperature;                            !- Unit Type

Schedule:Day:Interval,
  NECB-A-Thermostat Setpoint-Heating Sun|Hol Day, !- Name
  Temperature,                            !- Schedule Type Limits Name
  No,                                     !- Interpolate to Timestep
  24:00,                                  !- Time 1 {hh:mm}
  18;                                     !- Value Until Time 1

Schedule:Day:Interval,
  NECB-A-Thermostat Setpoint-Heating Default|Wkdy Day, !- Name
  Temperature,                            !- Schedule Type Limits Name
  No,                                     !- Interpolate to Timestep
  06:00,                                  !- Time 1 {hh:mm}
  18,                                     !- Value Until Time 1
  07:00,                                  !- Time 2 {hh:mm}
  20,                                     !- Value Until Time 2
  21:00,                                  !- Time 3 {hh:mm}
  22,                                     !- Value Until Time 3
  24:00,                                  !- Time 4 {hh:mm}
  18;                                     !- Value Until Time 4

Schedule:Day:Interval,
  NECB-A-Thermostat Setpoint-Heating Sat Day, !- Name
  Temperature,                            !- Schedule Type Limits Name
  No,                                     !- Interpolate to Timestep
  24:00,                                  !- Time 1 {hh:mm}
  18;                                     !- Value Until Time 1

Schedule:Week:Daily,
  NECB-A-Thermostat Setpoint-Heating Week Rule - Jan1-Dec31, !- Name
  NECB-A-Thermostat Setpoint-Heating Sun|Hol Day, !- Sunday Schedule:Day Name
  NECB-A-Thermostat Setpoint-Heating Default|Wkdy Day, !- Monday Schedule:Day Name
  NECB-A-Thermostat Setpoint-Heating Default|Wkdy Day, !- Tuesday Schedule:Day Name
  NECB-A-Thermostat Setpoint-Heating Default|Wkdy Day, !- Wednesday Schedule:Day Name
  NECB-A-Thermostat Setpoint-Heating Default|Wkdy Day, !- Thursday Schedule:Day Name
  NECB-A-Thermostat Setpoint-Heating Default|Wkdy Day, !- Friday Schedule:Day Name
  NECB-A-Thermostat Setpoint-Heating Sat Day, !- Saturday Schedule:Day Name
  NECB-A-Thermostat Setpoint-Heating Default, !- Holiday Schedule:Day Name
  NECB-A-Thermostat Setpoint-Heating Default, !- SummerDesignDay Schedule:Day Name
  NECB-A-Thermostat Setpoint-Heating Default, !- WinterDesignDay Schedule:Day Name
  NECB-A-Thermostat Setpoint-Heating Default, !- CustomDay1 Schedule:Day Name
  NECB-A-Thermostat Setpoint-Heating Default; !- CustomDay2 Schedule:Day Name

Schedule:Year,
  NECB-A-Thermostat Setpoint-Heating,     !- Name
  Temperature,                            !- Schedule Type Limits Name
  NECB-A-Thermostat Setpoint-Heating Week Rule - Jan1-Dec31, !- Schedule:Week Name 1
  1,                                      !- Start Month 1
  1,                                      !- Start Day 1
  12,                                     !- End Month 1
  31;                                     !- End Day 1

Schedule:Day:Interval,
  NECB-A-Thermostat Setpoint-Heating Default, !- Name
  Temperature,                            !- Schedule Type Limits Name
  No,                                     !- Interpolate to Timestep
  06:00,                                  !- Time 1 {hh:mm}
  18,                                     !- Value Until Time 1
  07:00,                                  !- Time 2 {hh:mm}
  20,                                     !- Value Until Time 2
  21:00,                                  !- Time 3 {hh:mm}
  22,                                     !- Value Until Time 3
  24:00,                                  !- Time 4 {hh:mm}
  18;                                     !- Value Until Time 4

Schedule:Day:Interval,
  NECB-A-Thermostat Setpoint-Cooling Sun|Hol Day, !- Name
  Temperature,                            !- Schedule Type Limits Name
  No,                                     !- Interpolate to Timestep
  24:00,                                  !- Time 1 {hh:mm}
  35;                                     !- Value Until Time 1

Schedule:Day:Interval,
  NECB-A-Thermostat Setpoint-Cooling Default|Wkdy Day, !- Name
  Temperature,                            !- Schedule Type Limits Name
  No,                                     !- Interpolate to Timestep
  06:00,                                  !- Time 1 {hh:mm}
  35,                                     !- Value Until Time 1
  21:00,                                  !- Time 2 {hh:mm}
  24,                                     !- Value Until Time 2
  24:00,                                  !- Time 3 {hh:mm}
  35;                                     !- Value Until Time 3

Schedule:Day:Interval,
  NECB-A-Thermostat Setpoint-Cooling Sat Day, !- Name
  Temperature,                            !- Schedule Type Limits Name
  No,                                     !- Interpolate to Timestep
  24:00,                                  !- Time 1 {hh:mm}
  35;                                     !- Value Until Time 1

Schedule:Week:Daily,
  NECB-A-Thermostat Setpoint-Cooling Week Rule - Jan1-Dec31, !- Name
  NECB-A-Thermostat Setpoint-Cooling Sun|Hol Day, !- Sunday Schedule:Day Name
  NECB-A-Thermostat Setpoint-Cooling Default|Wkdy Day, !- Monday Schedule:Day Name
  NECB-A-Thermostat Setpoint-Cooling Default|Wkdy Day, !- Tuesday Schedule:Day Name
  NECB-A-Thermostat Setpoint-Cooling Default|Wkdy Day, !- Wednesday Schedule:Day Name
  NECB-A-Thermostat Setpoint-Cooling Default|Wkdy Day, !- Thursday Schedule:Day Name
  NECB-A-Thermostat Setpoint-Cooling Default|Wkdy Day, !- Friday Schedule:Day Name
  NECB-A-Thermostat Setpoint-Cooling Sat Day, !- Saturday Schedule:Day Name
  NECB-A-Thermostat Setpoint-Cooling Default, !- Holiday Schedule:Day Name
  NECB-A-Thermostat Setpoint-Cooling Default, !- SummerDesignDay Schedule:Day Name
  NECB-A-Thermostat Setpoint-Cooling Default, !- WinterDesignDay Schedule:Day Name
  NECB-A-Thermostat Setpoint-Cooling Default, !- CustomDay1 Schedule:Day Name
  NECB-A-Thermostat Setpoint-Cooling Default; !- CustomDay2 Schedule:Day Name

Schedule:Year,
  NECB-A-Thermostat Setpoint-Cooling,     !- Name
  Temperature,                            !- Schedule Type Limits Name
  NECB-A-Thermostat Setpoint-Cooling Week Rule - Jan1-Dec31, !- Schedule:Week Name 1
  1,                                      !- Start Month 1
  1,                                      !- Start Day 1
  12,                                     !- End Month 1
  31;                                     !- End Day 1

Schedule:Day:Interval,
  NECB-A-Thermostat Setpoint-Cooling Default, !- Name
  Temperature,                            !- Schedule Type Limits Name
  No,                                     !- Interpolate to Timestep
  06:00,                                  !- Time 1 {hh:mm}
  35,                                     !- Value Until Time 1
  21:00,                                  !- Time 2 {hh:mm}
  24,                                     !- Value Until Time 2
  24:00,                                  !- Time 3 {hh:mm}
  35;                                     !- Value Until Time 3

ZoneHVAC:EquipmentConnections,
  ALL_ST=Office open plan_FL=Building Story 1_SCH=A, !- Zone Name
  ALL_ST=Office open plan_FL=Building Story 1_SCH=A Equipment List, !- Zone Conditioning Equipment List Name
  ALL_ST=Office open plan_FL=Building Story 1_SCH=A Inlet Node List, !- Zone Air Inlet Node or NodeList Name
  ,                                       !- Zone Air Exhaust Node or NodeList Name
  ALL_ST=Office open plan_FL=Building Story 1_SCH=A Zone Air Node, !- Zone Air Node Name
  ALL_ST=Office open plan_FL=Building Story 1_SCH=A Return Node List; !- Zone Return Air Node or NodeList Name

NodeList,
  ALL_ST=Office open plan_FL=Building Story 1_SCH=A Inlet Node List, !- Name
  Air Terminal Single Duct VAV Reheat 1 Outlet Air Node; !- Node Name 1

NodeList,
  ALL_ST=Office open plan_FL=Building Story 1_SCH=A Return Node List, !- Name
  ALL_ST=Office open plan_FL=Building Story 1_SCH=A Return Air Node; !- Node Name 1

ZoneHVAC:AirDistributionUnit,
  ADU Air Terminal Single Duct VAV Reheat 1, !- Name
  Air Terminal Single Duct VAV Reheat 1 Outlet Air Node, !- Air Distribution Unit Outlet Node Name
  AirTerminal:SingleDuct:VAV:Reheat,      !- Air Terminal Object Type
  Air Terminal Single Duct VAV Reheat 1;  !- Air Terminal Name

AirTerminal:SingleDuct:VAV:Reheat,
  Air Terminal Single Duct VAV Reheat 1,  !- Name
  Always On Discrete,                     !- Availability Schedule Name
  Air Terminal Single Duct VAV Reheat 1 Damper Outlet, !- Damper Air Outlet Node Name
  Air Terminal Single Duct VAV Reheat 1 Inlet Air Node, !- Air Inlet Node Name
  Autosize,                               !- Maximum Air Flow Rate {m3/s}
  Constant,                               !- Zone Minimum Air Flow Input Method
  0.3,                                    !- Constant Minimum Air Flow Fraction
  0,                                      !- Fixed Minimum Air Flow Rate {m3/s}
  ,                                       !- Minimum Air Flow Fraction Schedule Name
  Coil:Heating:Electric,                  !- Reheat Coil Object Type
  Coil Heating Electric 1,                !- Reheat Coil Name
  Autosize,                               !- Maximum Hot Water or Steam Flow Rate {m3/s}
  0,                                      !- Minimum Hot Water or Steam Flow Rate {m3/s}
  Air Terminal Single Duct VAV Reheat 1 Outlet Air Node, !- Air Outlet Node Name
  0.001,                                  !- Convergence Tolerance
  Normal,                                 !- Damper Heating Action
  Autocalculate,                          !- Maximum Flow per Zone Floor Area During Reheat {m3/s-m2}
  0.5,                                    !- Maximum Flow Fraction During Reheat
  43;                                     !- Maximum Reheat Air Temperature {C}

Coil:Heating:Electric,
  Coil Heating Electric 1,                !- Name
  Always On Discrete,                     !- Availability Schedule Name
  1,                                      !- Efficiency
  11033.2285881042,                       !- Nominal Capacity {W}
  Air Terminal Single Duct VAV Reheat 1 Damper Outlet, !- Air Inlet Node Name
  Air Terminal Single Duct VAV Reheat 1 Outlet Air Node; !- Air Outlet Node Name

Schedule:Constant,
  Always On Discrete,                     !- Name
  OnOff,                                  !- Schedule Type Limits Name
  1;                                      !- Hourly Value

ZoneHVAC:Baseboard:Convective:Electric,
  ZoneHVACBaseboardConvectiveElectric,    !- Name
  Always On Discrete,                     !- Availability Schedule Name
  ,                                       !- Heating Design Capacity Method
  Autosize,                               !- Heating Design Capacity {W}
  ,                                       !- Heating Design Capacity Per Floor Area {W/m2}
  ,                                       !- Fraction of Autosized Heating Design Capacity
  1;                                      !- Efficiency

ZoneHVAC:EquipmentList,
  ALL_ST=Office open plan_FL=Building Story 1_SCH=A Equipment List, !- Name
  SequentialLoad,                         !- Load Distribution Scheme
  ZoneHVAC:AirDistributionUnit,           !- Zone Equipment Object Type 1
  ADU Air Terminal Single Duct VAV Reheat 1, !- Zone Equipment Name 1
  1,                                      !- Zone Equipment Cooling Sequence 1
  1,                                      !- Zone Equipment Heating or No-Load Sequence 1
  ,                                       !- Zone Equipment Sequential Cooling Fraction Schedule Name 1
  ,                                       !- Zone Equipment Sequential Heating Fraction Schedule Name 1
  ZoneHVAC:Baseboard:Convective:Electric, !- Zone Equipment Object Type 2
  ZoneHVACBaseboardConvectiveElectric,    !- Zone Equipment Name 2
  2,                                      !- Zone Equipment Cooling Sequence 2
  2,                                      !- Zone Equipment Heating or No-Load Sequence 2
  ,                                       !- Zone Equipment Sequential Cooling Fraction Schedule Name 2
  ;                                       !- Zone Equipment Sequential Heating Fraction Schedule Name 2

Sizing:Zone,
  ALL_ST=Office open plan_FL=Building Story 1_SCH=A, !- Zone or ZoneList Name
  TemperatureDifference,                  !- Zone Cooling Design Supply Air Temperature Input Method
  13,                                     !- Zone Cooling Design Supply Air Temperature {C}
  11,                                     !- Zone Cooling Design Supply Air Temperature Difference {deltaC}
  TemperatureDifference,                  !- Zone Heating Design Supply Air Temperature Input Method
  43,                                     !- Zone Heating Design Supply Air Temperature {C}
  21,                                     !- Zone Heating Design Supply Air Temperature Difference {deltaC}
  0.0085,                                 !- Zone Cooling Design Supply Air Humidity Ratio {kgWater/kgDryAir}
  0.008,                                  !- Zone Heating Design Supply Air Humidity Ratio {kgWater/kgDryAir}
  ALL_ST=Office open plan_FL=Building Story 1_SCH=A DSOA Space List, !- Design Specification Outdoor Air Object Name
  1.3,                                    !- Zone Heating Sizing Factor
  1.1,                                    !- Zone Cooling Sizing Factor
  DesignDay,                              !- Cooling Design Air Flow Method
  0,                                      !- Cooling Design Air Flow Rate {m3/s}
  0.000762,                               !- Cooling Minimum Air Flow per Zone Floor Area {m3/s-m2}
  0,                                      !- Cooling Minimum Air Flow {m3/s}
  0,                                      !- Cooling Minimum Air Flow Fraction
  DesignDay,                              !- Heating Design Air Flow Method
  0,                                      !- Heating Design Air Flow Rate {m3/s}
  0.002032,                               !- Heating Maximum Air Flow per Zone Floor Area {m3/s-m2}
  0.1415762,                              !- Heating Maximum Air Flow {m3/s}
  0.3,                                    !- Heating Maximum Air Flow Fraction
  ,                                       !- Design Specification Zone Air Distribution Object Name
  No,                                     !- Account for Dedicated Outdoor Air System
  ,                                       !- Dedicated Outdoor Air System Control Strategy
  ,                                       !- Dedicated Outdoor Air Low Setpoint Temperature for Design {C}
  ,                                       !- Dedicated Outdoor Air High Setpoint Temperature for Design {C}
  Sensible Load Only No Latent Load,      !- Zone Load Sizing Method
  HumidityRatioDifference,                !- Zone Latent Cooling Design Supply Air Humidity Ratio Input Method
  ,                                       !- Zone Dehumidification Design Supply Air Humidity Ratio {kgWater/kgDryAir}
  0.005,                                  !- Zone Cooling Design Supply Air Humidity Ratio Difference {kgWater/kgDryAir}
  HumidityRatioDifference,                !- Zone Latent Heating Design Supply Air Humidity Ratio Input Method
  ,                                       !- Zone Humidification Design Supply Air Humidity Ratio {kgWater/kgDryAir}
  0.005,                                  !- Zone Humidification Design Supply Air Humidity Ratio Difference {kgWater/kgDryAir}
  ,                                       !- Zone Humidistat Dehumidification Set Point Schedule Name
  ,                                       !- Zone Humidistat Humidification Set Point Schedule Name
  Coincident;                             !- Type of Space Sum to Use

Schedule:Day:Interval,
  Schedule Day 8,                         !- Name
  Fractional,                             !- Schedule Type Limits Name
  No,                                     !- Interpolate to Timestep
  24:00,                                  !- Time 1 {hh:mm}
  0;                                      !- Value Until Time 1

Schedule:Day:Interval,
  sys_6|mixed|shr>none|sc>ccashp|sh>ccashp|ssf>vv|zh>b-e|zc>none|srf>vv| Occ Sch Default, !- Name
  Fractional,                             !- Schedule Type Limits Name
  No,                                     !- Interpolate to Timestep
  08:00,                                  !- Time 1 {hh:mm}
  0,                                      !- Value Until Time 1
  19:00,                                  !- Time 2 {hh:mm}
  1,                                      !- Value Until Time 2
  24:00,                                  !- Time 3 {hh:mm}
  0;                                      !- Value Until Time 3

Schedule:Day:Interval,
  Schedule Day 7,                         !- Name
  Fractional,                             !- Schedule Type Limits Name
  No,                                     !- Interpolate to Timestep
  24:00,                                  !- Time 1 {hh:mm}
  0;                                      !- Value Until Time 1

Schedule:Week:Daily,
  sys_6|mixed|shr>none|sc>ccashp|sh>ccashp|ssf>vv|zh>b-e|zc>none|srf>vv| Occ Sch Week Rule - Jan1-Dec31, !- Name
  Schedule Day 8,                         !- Sunday Schedule:Day Name
  sys_6|mixed|shr>none|sc>ccashp|sh>ccashp|ssf>vv|zh>b-e|zc>none|srf>vv| Occ Sch Default, !- Monday Schedule:Day Name
  sys_6|mixed|shr>none|sc>ccashp|sh>ccashp|ssf>vv|zh>b-e|zc>none|srf>vv| Occ Sch Default, !- Tuesday Schedule:Day Name
  sys_6|mixed|shr>none|sc>ccashp|sh>ccashp|ssf>vv|zh>b-e|zc>none|srf>vv| Occ Sch Default, !- Wednesday Schedule:Day Name
  sys_6|mixed|shr>none|sc>ccashp|sh>ccashp|ssf>vv|zh>b-e|zc>none|srf>vv| Occ Sch Default, !- Thursday Schedule:Day Name
  sys_6|mixed|shr>none|sc>ccashp|sh>ccashp|ssf>vv|zh>b-e|zc>none|srf>vv| Occ Sch Default, !- Friday Schedule:Day Name
  Schedule Day 7,                         !- Saturday Schedule:Day Name
  sys_6|mixed|shr>none|sc>ccashp|sh>ccashp|ssf>vv|zh>b-e|zc>none|srf>vv| Occ Sch Default, !- Holiday Schedule:Day Name
  sys_6|mixed|shr>none|sc>ccashp|sh>ccashp|ssf>vv|zh>b-e|zc>none|srf>vv| Occ Sch Summer Design Day, !- SummerDesignDay Schedule:Day Name
  sys_6|mixed|shr>none|sc>ccashp|sh>ccashp|ssf>vv|zh>b-e|zc>none|srf>vv| Occ Sch Winter Design Day, !- WinterDesignDay Schedule:Day Name
  sys_6|mixed|shr>none|sc>ccashp|sh>ccashp|ssf>vv|zh>b-e|zc>none|srf>vv| Occ Sch Default, !- CustomDay1 Schedule:Day Name
  sys_6|mixed|shr>none|sc>ccashp|sh>ccashp|ssf>vv|zh>b-e|zc>none|srf>vv| Occ Sch Default; !- CustomDay2 Schedule:Day Name

Schedule:Year,
  sys_6|mixed|shr>none|sc>ccashp|sh>ccashp|ssf>vv|zh>b-e|zc>none|srf>vv| Occ Sch, !- Name
  Fractional,                             !- Schedule Type Limits Name
  sys_6|mixed|shr>none|sc>ccashp|sh>ccashp|ssf>vv|zh>b-e|zc>none|srf>vv| Occ Sch Week Rule - Jan1-Dec31, !- Schedule:Week Name 1
  1,                                      !- Start Month 1
  1,                                      !- Start Day 1
  12,                                     !- End Month 1
  31;                                     !- End Day 1

Schedule:Day:Interval,
  sys_6|mixed|shr>none|sc>ccashp|sh>ccashp|ssf>vv|zh>b-e|zc>none|srf>vv| Occ Sch Summer Design Day, !- Name
  Fractional,                             !- Schedule Type Limits Name
  No,                                     !- Interpolate to Timestep
  24:00,                                  !- Time 1 {hh:mm}
  1;                                      !- Value Until Time 1

Schedule:Day:Interval,
  sys_6|mixed|shr>none|sc>ccashp|sh>ccashp|ssf>vv|zh>b-e|zc>none|srf>vv| Occ Sch Winter Design Day, !- Name
  Fractional,                             !- Schedule Type Limits Name
  No,                                     !- Interpolate to Timestep
  24:00,                                  !- Time 1 {hh:mm}
  1;                                      !- Value Until Time 1

Controller:MechanicalVentilation,
  Controller Mechanical Ventilation 1,    !- Name
  sys_6|mixed|shr>none|sc>ccashp|sh>ccashp|ssf>vv|zh>b-e|zc>none|srf>vv| Occ Sch, !- Availability Schedule Name
  No,                                     !- Demand Controlled Ventilation
  ZoneSum,                                !- System Outdoor Air Method
  ,                                       !- Zone Maximum Outdoor Air Fraction {dimensionless}
  ALL_ST=Office open plan_FL=Building Story 1_SCH=A, !- Zone or ZoneList Name 1
  Space Function Office open plan Ventilation, !- Design Specification Outdoor Air Object Name 1
  ,                                       !- Design Specification Zone Air Distribution Object Name 1
  ALL_ST=Office open plan_FL=Building Story 1_SCH=A 1, !- Zone or ZoneList Name 2
  Space Function Office open plan Ventilation, !- Design Specification Outdoor Air Object Name 2
  ,                                       !- Design Specification Zone Air Distribution Object Name 2
  ALL_ST=Office open plan_FL=Building Story 1_SCH=A 2, !- Zone or ZoneList Name 3
  Space Function Office open plan Ventilation, !- Design Specification Outdoor Air Object Name 3
  ,                                       !- Design Specification Zone Air Distribution Object Name 3
  ALL_ST=Office open plan_FL=Building Story 1_SCH=A 3, !- Zone or ZoneList Name 4
  Space Function Office open plan Ventilation, !- Design Specification Outdoor Air Object Name 4
  ,                                       !- Design Specification Zone Air Distribution Object Name 4
  ALL_ST=Office open plan_FL=Building Story 1_SCH=A 4, !- Zone or ZoneList Name 5
  Space Function Office open plan Ventilation, !- Design Specification Outdoor Air Object Name 5
  ;                                       !- Design Specification Zone Air Distribution Object Name 5

DesignSpecification:OutdoorAir,
  Space Function Office open plan Ventilation, !- Name
  Sum,                                    !- Outdoor Air Method
  0.002539077244416,                      !- Outdoor Air Flow per Person {m3/s-person}
  0.0003048,                              !- Outdoor Air Flow per Zone Floor Area {m3/s-m2}
  0,                                      !- Outdoor Air Flow per Zone {m3/s}
  0;                                      !- Outdoor Air Flow Air Changes per Hour {1/hr}

DesignSpecification:OutdoorAir:SpaceList,
  ALL_ST=Office open plan_FL=Building Story 1_SCH=A DSOA Space List, !- Name
  Core_bottom,                            !- Space Name 1
  Space Function Office open plan Ventilation; !- Space Design Specification Outdoor Air Object Name 1

Zone,
  ALL_ST=Office open plan_FL=Building Story 1_SCH=A 1, !- Name
  0,                                      !- Direction of Relative North {deg}
  0,                                      !- X Origin {m}
  0,                                      !- Y Origin {m}
  0,                                      !- Z Origin {m}
  ,                                       !- Type
  1,                                      !- Multiplier
  ,                                       !- Ceiling Height {m}
  ,                                       !- Volume {m3}
  ,                                       !- Floor Area {m2}
  ,                                       !- Zone Inside Convection Algorithm
  ,                                       !- Zone Outside Convection Algorithm
  Yes;                                    !- Part of Total Floor Area

Space,
  Perimeter_bot_ZN_2,                     !- Name
  ALL_ST=Office open plan_FL=Building Story 1_SCH=A 1, !- Zone Name
  ,                                       !- Ceiling Height {m}
  360.07845085512,                        !- Volume {m3}
  ,                                       !- Floor Area {m2}
  Space Function Office open plan;        !- Space Type

BuildingSurface:Detailed,
  Perimeter_bot_ZN_2_Ceiling,             !- Name
  Ceiling,                                !- Surface Type
  BTAP-Int-Ceiling,                       !- Construction Name
  ALL_ST=Office open plan_FL=Building Story 1_SCH=A 1, !- Zone Name
  Perimeter_bot_ZN_2,                     !- Space Name
  Surface,                                !- Outside Boundary Condition
  FirstFloor_Plenum_Floor_2,              !- Outside Boundary Condition Object
  NoSun,                                  !- Sun Exposure
  NoWind,                                 !- Wind Exposure
  ,                                       !- View Factor to Ground
  ,                                       !- Number of Vertices
  49.911, 0, 2.7432,                      !- X,Y,Z Vertex 1 {m}
  49.911, 33.2738, 2.7432,                !- X,Y,Z Vertex 2 {m}
  45.3375, 28.7006, 2.7432,               !- X,Y,Z Vertex 3 {m}
  45.3375, 4.5732, 2.7432;                !- X,Y,Z Vertex 4 {m}

BuildingSurface:Detailed,
  Perimeter_bot_ZN_2_Floor,               !- Name
  Floor,                                  !- Surface Type
  BTAP-Grnd-Floor-Mass:U-0.757_std,       !- Construction Name
  ALL_ST=Office open plan_FL=Building Story 1_SCH=A 1, !- Zone Name
  Perimeter_bot_ZN_2,                     !- Space Name
  Foundation,                             !- Outside Boundary Condition
  Bldg Kiva Foundation,                   !- Outside Boundary Condition Object
  NoSun,                                  !- Sun Exposure
  NoWind,                                 !- Wind Exposure
  ,                                       !- View Factor to Ground
  ,                                       !- Number of Vertices
  49.911, 33.2738, 0,                     !- X,Y,Z Vertex 1 {m}
  49.911, 0, 0,                           !- X,Y,Z Vertex 2 {m}
  45.3375, 4.5732, 0,                     !- X,Y,Z Vertex 3 {m}
  45.3375, 28.7006, 0;                    !- X,Y,Z Vertex 4 {m}

SurfaceProperty:ExposedFoundationPerimeter,
  Perimeter_bot_ZN_2_Floor,               !- Surface Name
  TotalExposedPerimeter,                  !- Exposed Perimeter Calculation Method
  33.2738,                                !- Total Exposed Perimeter {m}
  ;                                       !- Exposed Perimeter Fraction {dimensionless}

BuildingSurface:Detailed,
  Perimeter_bot_ZN_2_Wall_East,           !- Name
  Wall,                                   !- Surface Type
  BTAP-Ext-Wall-Mass:U-0.29,              !- Construction Name
  ALL_ST=Office open plan_FL=Building Story 1_SCH=A 1, !- Zone Name
  Perimeter_bot_ZN_2,                     !- Space Name
  Outdoors,                               !- Outside Boundary Condition
  ,                                       !- Outside Boundary Condition Object
  SunExposed,                             !- Sun Exposure
  WindExposed,                            !- Wind Exposure
  ,                                       !- View Factor to Ground
  ,                                       !- Number of Vertices
  49.911, 0, 2.7432,                      !- X,Y,Z Vertex 1 {m}
  49.911, 0, 0,                           !- X,Y,Z Vertex 2 {m}
  49.911, 33.2738, 0,                     !- X,Y,Z Vertex 3 {m}
  49.911, 33.2738, 2.7432;                !- X,Y,Z Vertex 4 {m}

FenestrationSurface:Detailed,
  Perimeter_bot_ZN_2_Wall_East_FixedWindow, !- Name
  Window,                                 !- Surface Type
  BTAP-Ext-FixedWindow:U=0.280 SHGC=0.600, !- Construction Name
  Perimeter_bot_ZN_2_Wall_East,           !- Building Surface Name
  ,                                       !- Outside Boundary Condition Object
  ,                                       !- View Factor to Ground
  ,                                       !- Frame and Divider Name
  ,                                       !- Multiplier
  ,                                       !- Number of Vertices
  49.911, 0.0254, 2.08349676443909,       !- X,Y,Z Vertex 1 {m}
  49.911, 0.0254, 0.762,                  !- X,Y,Z Vertex 2 {m}
  49.911, 33.2484, 0.762,                 !- X,Y,Z Vertex 3 {m}
  49.911, 33.2484, 2.08349676443909;      !- X,Y,Z Vertex 4 {m}

BuildingSurface:Detailed,
  Perimeter_bot_ZN_2_Wall_North,          !- Name
  Wall,                                   !- Surface Type
  BTAP-Int-Wall,                          !- Construction Name
  ALL_ST=Office open plan_FL=Building Story 1_SCH=A 1, !- Zone Name
  Perimeter_bot_ZN_2,                     !- Space Name
  Surface,                                !- Outside Boundary Condition
  Perimeter_bot_ZN_3_Wall_East,           !- Outside Boundary Condition Object
  NoSun,                                  !- Sun Exposure
  NoWind,                                 !- Wind Exposure
  ,                                       !- View Factor to Ground
  ,                                       !- Number of Vertices
  49.911, 33.2738, 2.7432,                !- X,Y,Z Vertex 1 {m}
  49.911, 33.2738, 0,                     !- X,Y,Z Vertex 2 {m}
  45.3375, 28.7006, 0,                    !- X,Y,Z Vertex 3 {m}
  45.3375, 28.7006, 2.7432;               !- X,Y,Z Vertex 4 {m}

BuildingSurface:Detailed,
  Perimeter_bot_ZN_2_Wall_South,          !- Name
  Wall,                                   !- Surface Type
  BTAP-Int-Wall,                          !- Construction Name
  ALL_ST=Office open plan_FL=Building Story 1_SCH=A 1, !- Zone Name
  Perimeter_bot_ZN_2,                     !- Space Name
  Surface,                                !- Outside Boundary Condition
  Perimeter_bot_ZN_1_Wall_East,           !- Outside Boundary Condition Object
  NoSun,                                  !- Sun Exposure
  NoWind,                                 !- Wind Exposure
  ,                                       !- View Factor to Ground
  ,                                       !- Number of Vertices
  45.3375, 4.5732, 2.7432,                !- X,Y,Z Vertex 1 {m}
  45.3375, 4.5732, 0,                     !- X,Y,Z Vertex 2 {m}
  49.911, 0, 0,                           !- X,Y,Z Vertex 3 {m}
  49.911, 0, 2.7432;                      !- X,Y,Z Vertex 4 {m}

BuildingSurface:Detailed,
  Perimeter_bot_ZN_2_Wall_West,           !- Name
  Wall,                                   !- Surface Type
  BTAP-Int-Wall,                          !- Construction Name
  ALL_ST=Office open plan_FL=Building Story 1_SCH=A 1, !- Zone Name
  Perimeter_bot_ZN_2,                     !- Space Name
  Surface,                                !- Outside Boundary Condition
  Core_bot_ZN_5_Wall_East,                !- Outside Boundary Condition Object
  NoSun,                                  !- Sun Exposure
  NoWind,                                 !- Wind Exposure
  ,                                       !- View Factor to Ground
  ,                                       !- Number of Vertices
  45.3375, 28.7006, 2.7432,               !- X,Y,Z Vertex 1 {m}
  45.3375, 28.7006, 0,                    !- X,Y,Z Vertex 2 {m}
  45.3375, 4.5732, 0,                     !- X,Y,Z Vertex 3 {m}
  45.3375, 4.5732, 2.7432;                !- X,Y,Z Vertex 4 {m}

ZoneInfiltration:DesignFlowRate,
  Perimeter_bot_ZN_2 Infiltration,        !- Name
  Perimeter_bot_ZN_2,                     !- Zone or ZoneList or Space or SpaceList Name
  Always On Discrete,                     !- Schedule Name
  Flow/ExteriorArea,                      !- Design Flow Rate Calculation Method
  ,                                       !- Design Flow Rate {m3/s}
  ,                                       !- Flow Rate per Floor Area {m3/s-m2}
  0.00471177345157376,                    !- Flow Rate per Exterior Surface Area {m3/s-m2}
  ,                                       !- Air Changes per Hour {1/hr}
  0,                                      !- Constant Term Coefficient
  0,                                      !- Temperature Term Coefficient
  0.224,                                  !- Velocity Term Coefficient
  0;                                      !- Velocity Squared Term Coefficient

ZoneControl:Thermostat,
  ALL_ST=Office open plan_FL=Building Story 1_SCH=A 1 Thermostat, !- Name
  ALL_ST=Office open plan_FL=Building Story 1_SCH=A 1, !- Zone or ZoneList Name
  ALL_ST=Office open plan_FL=Building Story 1_SCH=A 1 Thermostat Schedule, !- Control Type Schedule Name
  ThermostatSetpoint:DualSetpoint,        !- Control 1 Object Type
  Space Function Office open plan Thermostat 40, !- Control 1 Name
  ,                                       !- Control 2 Object Type
  ,                                       !- Control 2 Name
  ,                                       !- Control 3 Object Type
  ,                                       !- Control 3 Name
  ,                                       !- Control 4 Object Type
  ,                                       !- Control 4 Name
  0;                                      !- Temperature Difference Between Cutout And Setpoint {deltaC}

Schedule:Compact,
  ALL_ST=Office open plan_FL=Building Story 1_SCH=A 1 Thermostat Schedule, !- Name
  ALL_ST=Office open plan_FL=Building Story 1_SCH=A 1 Thermostat Schedule Type Limits, !- Schedule Type Limits Name
  Through: 12/31,                         !- Field 1
  For: AllDays,                           !- Field 2
  Until: 24:00,                           !- Field 3
  4;                                      !- Field 4

ScheduleTypeLimits,
  ALL_ST=Office open plan_FL=Building Story 1_SCH=A 1 Thermostat Schedule Type Limits, !- Name
  0,                                      !- Lower Limit Value {BasedOnField A3}
  4,                                      !- Upper Limit Value {BasedOnField A3}
  DISCRETE;                               !- Numeric Type

ThermostatSetpoint:DualSetpoint,
  Space Function Office open plan Thermostat 40, !- Name
  NECB-A-Thermostat Setpoint-Heating,     !- Heating Setpoint Temperature Schedule Name
  NECB-A-Thermostat Setpoint-Cooling;     !- Cooling Setpoint Temperature Schedule Name

ZoneHVAC:EquipmentConnections,
  ALL_ST=Office open plan_FL=Building Story 1_SCH=A 1, !- Zone Name
  ALL_ST=Office open plan_FL=Building Story 1_SCH=A 1 Equipment List, !- Zone Conditioning Equipment List Name
  ALL_ST=Office open plan_FL=Building Story 1_SCH=A 1 Inlet Node List, !- Zone Air Inlet Node or NodeList Name
  ,                                       !- Zone Air Exhaust Node or NodeList Name
  ALL_ST=Office open plan_FL=Building Story 1_SCH=A 1 Zone Air Node, !- Zone Air Node Name
  ALL_ST=Office open plan_FL=Building Story 1_SCH=A 1 Return Node List; !- Zone Return Air Node or NodeList Name

NodeList,
  ALL_ST=Office open plan_FL=Building Story 1_SCH=A 1 Inlet Node List, !- Name
  Air Terminal Single Duct VAV Reheat 2 Outlet Air Node; !- Node Name 1

NodeList,
  ALL_ST=Office open plan_FL=Building Story 1_SCH=A 1 Return Node List, !- Name
  ALL_ST=Office open plan_FL=Building Story 1_SCH=A 1 Return Air Node; !- Node Name 1

ZoneHVAC:AirDistributionUnit,
  ADU Air Terminal Single Duct VAV Reheat 2, !- Name
  Air Terminal Single Duct VAV Reheat 2 Outlet Air Node, !- Air Distribution Unit Outlet Node Name
  AirTerminal:SingleDuct:VAV:Reheat,      !- Air Terminal Object Type
  Air Terminal Single Duct VAV Reheat 2;  !- Air Terminal Name

AirTerminal:SingleDuct:VAV:Reheat,
  Air Terminal Single Duct VAV Reheat 2,  !- Name
  Always On Discrete,                     !- Availability Schedule Name
  Air Terminal Single Duct VAV Reheat 2 Damper Outlet, !- Damper Air Outlet Node Name
  Air Terminal Single Duct VAV Reheat 2 Inlet Air Node, !- Air Inlet Node Name
  Autosize,                               !- Maximum Air Flow Rate {m3/s}
  Constant,                               !- Zone Minimum Air Flow Input Method
  0.3,                                    !- Constant Minimum Air Flow Fraction
  0,                                      !- Fixed Minimum Air Flow Rate {m3/s}
  ,                                       !- Minimum Air Flow Fraction Schedule Name
  Coil:Heating:Electric,                  !- Reheat Coil Object Type
  Coil Heating Electric 2,                !- Reheat Coil Name
  Autosize,                               !- Maximum Hot Water or Steam Flow Rate {m3/s}
  0,                                      !- Minimum Hot Water or Steam Flow Rate {m3/s}
  Air Terminal Single Duct VAV Reheat 2 Outlet Air Node, !- Air Outlet Node Name
  0.001,                                  !- Convergence Tolerance
  Normal,                                 !- Damper Heating Action
  Autocalculate,                          !- Maximum Flow per Zone Floor Area During Reheat {m3/s-m2}
  0.5,                                    !- Maximum Flow Fraction During Reheat
  43;                                     !- Maximum Reheat Air Temperature {C}

Coil:Heating:Electric,
  Coil Heating Electric 2,                !- Name
  Always On Discrete,                     !- Availability Schedule Name
  1,                                      !- Efficiency
  9457.06171989441,                       !- Nominal Capacity {W}
  Air Terminal Single Duct VAV Reheat 2 Damper Outlet, !- Air Inlet Node Name
  Air Terminal Single Duct VAV Reheat 2 Outlet Air Node; !- Air Outlet Node Name

ZoneHVAC:Baseboard:Convective:Electric,
  ZoneHVACBaseboardConvectiveElectric 1,  !- Name
  Always On Discrete,                     !- Availability Schedule Name
  ,                                       !- Heating Design Capacity Method
  Autosize,                               !- Heating Design Capacity {W}
  ,                                       !- Heating Design Capacity Per Floor Area {W/m2}
  ,                                       !- Fraction of Autosized Heating Design Capacity
  1;                                      !- Efficiency

ZoneHVAC:EquipmentList,
  ALL_ST=Office open plan_FL=Building Story 1_SCH=A 1 Equipment List, !- Name
  SequentialLoad,                         !- Load Distribution Scheme
  ZoneHVAC:AirDistributionUnit,           !- Zone Equipment Object Type 1
  ADU Air Terminal Single Duct VAV Reheat 2, !- Zone Equipment Name 1
  1,                                      !- Zone Equipment Cooling Sequence 1
  1,                                      !- Zone Equipment Heating or No-Load Sequence 1
  ,                                       !- Zone Equipment Sequential Cooling Fraction Schedule Name 1
  ,                                       !- Zone Equipment Sequential Heating Fraction Schedule Name 1
  ZoneHVAC:Baseboard:Convective:Electric, !- Zone Equipment Object Type 2
  ZoneHVACBaseboardConvectiveElectric 1,  !- Zone Equipment Name 2
  2,                                      !- Zone Equipment Cooling Sequence 2
  2,                                      !- Zone Equipment Heating or No-Load Sequence 2
  ,                                       !- Zone Equipment Sequential Cooling Fraction Schedule Name 2
  ;                                       !- Zone Equipment Sequential Heating Fraction Schedule Name 2

Sizing:Zone,
  ALL_ST=Office open plan_FL=Building Story 1_SCH=A 1, !- Zone or ZoneList Name
  TemperatureDifference,                  !- Zone Cooling Design Supply Air Temperature Input Method
  13,                                     !- Zone Cooling Design Supply Air Temperature {C}
  11,                                     !- Zone Cooling Design Supply Air Temperature Difference {deltaC}
  TemperatureDifference,                  !- Zone Heating Design Supply Air Temperature Input Method
  43,                                     !- Zone Heating Design Supply Air Temperature {C}
  21,                                     !- Zone Heating Design Supply Air Temperature Difference {deltaC}
  0.0085,                                 !- Zone Cooling Design Supply Air Humidity Ratio {kgWater/kgDryAir}
  0.008,                                  !- Zone Heating Design Supply Air Humidity Ratio {kgWater/kgDryAir}
  ALL_ST=Office open plan_FL=Building Story 1_SCH=A 1 DSOA Space List, !- Design Specification Outdoor Air Object Name
  1.3,                                    !- Zone Heating Sizing Factor
  1.1,                                    !- Zone Cooling Sizing Factor
  DesignDay,                              !- Cooling Design Air Flow Method
  0,                                      !- Cooling Design Air Flow Rate {m3/s}
  0.000762,                               !- Cooling Minimum Air Flow per Zone Floor Area {m3/s-m2}
  0,                                      !- Cooling Minimum Air Flow {m3/s}
  0,                                      !- Cooling Minimum Air Flow Fraction
  DesignDay,                              !- Heating Design Air Flow Method
  0,                                      !- Heating Design Air Flow Rate {m3/s}
  0.002032,                               !- Heating Maximum Air Flow per Zone Floor Area {m3/s-m2}
  0.1415762,                              !- Heating Maximum Air Flow {m3/s}
  0.3,                                    !- Heating Maximum Air Flow Fraction
  ,                                       !- Design Specification Zone Air Distribution Object Name
  No,                                     !- Account for Dedicated Outdoor Air System
  ,                                       !- Dedicated Outdoor Air System Control Strategy
  ,                                       !- Dedicated Outdoor Air Low Setpoint Temperature for Design {C}
  ,                                       !- Dedicated Outdoor Air High Setpoint Temperature for Design {C}
  Sensible Load Only No Latent Load,      !- Zone Load Sizing Method
  HumidityRatioDifference,                !- Zone Latent Cooling Design Supply Air Humidity Ratio Input Method
  ,                                       !- Zone Dehumidification Design Supply Air Humidity Ratio {kgWater/kgDryAir}
  0.005,                                  !- Zone Cooling Design Supply Air Humidity Ratio Difference {kgWater/kgDryAir}
  HumidityRatioDifference,                !- Zone Latent Heating Design Supply Air Humidity Ratio Input Method
  ,                                       !- Zone Humidification Design Supply Air Humidity Ratio {kgWater/kgDryAir}
  0.005,                                  !- Zone Humidification Design Supply Air Humidity Ratio Difference {kgWater/kgDryAir}
  ,                                       !- Zone Humidistat Dehumidification Set Point Schedule Name
  ,                                       !- Zone Humidistat Humidification Set Point Schedule Name
  Coincident;                             !- Type of Space Sum to Use

DesignSpecification:OutdoorAir:SpaceList,
  ALL_ST=Office open plan_FL=Building Story 1_SCH=A 1 DSOA Space List, !- Name
  Perimeter_bot_ZN_2,                     !- Space Name 1
  Space Function Office open plan Ventilation; !- Space Design Specification Outdoor Air Object Name 1

Zone,
  ALL_ST=Office open plan_FL=Building Story 1_SCH=A 2, !- Name
  0,                                      !- Direction of Relative North {deg}
  0,                                      !- X Origin {m}
  0,                                      !- Y Origin {m}
  0,                                      !- Z Origin {m}
  ,                                       !- Type
  1,                                      !- Multiplier
  ,                                       !- Ceiling Height {m}
  ,                                       !- Volume {m3}
  ,                                       !- Floor Area {m2}
  ,                                       !- Zone Inside Convection Algorithm
  ,                                       !- Zone Outside Convection Algorithm
  Yes;                                    !- Part of Total Floor Area

Space,
  Perimeter_bot_ZN_1,                     !- Name
  ALL_ST=Office open plan_FL=Building Story 1_SCH=A 2, !- Zone Name
  ,                                       !- Ceiling Height {m}
  568.769988336336,                       !- Volume {m3}
  ,                                       !- Floor Area {m2}
  Space Function Office open plan;        !- Space Type

BuildingSurface:Detailed,
  Perimeter_bot_ZN_1_Ceiling,             !- Name
  Ceiling,                                !- Surface Type
  BTAP-Int-Ceiling,                       !- Construction Name
  ALL_ST=Office open plan_FL=Building Story 1_SCH=A 2, !- Zone Name
  Perimeter_bot_ZN_1,                     !- Space Name
  Surface,                                !- Outside Boundary Condition
  FirstFloor_Plenum_Floor_1,              !- Outside Boundary Condition Object
  NoSun,                                  !- Sun Exposure
  NoWind,                                 !- Wind Exposure
  ,                                       !- View Factor to Ground
  ,                                       !- Number of Vertices
  49.911, 0, 2.7432,                      !- X,Y,Z Vertex 1 {m}
  45.3375, 4.5732, 2.7432,                !- X,Y,Z Vertex 2 {m}
  4.5732, 4.5732, 2.7432,                 !- X,Y,Z Vertex 3 {m}
  0, 0, 2.7432;                           !- X,Y,Z Vertex 4 {m}

BuildingSurface:Detailed,
  Perimeter_bot_ZN_1_Floor,               !- Name
  Floor,                                  !- Surface Type
  BTAP-Grnd-Floor-Mass:U-0.757_std,       !- Construction Name
  ALL_ST=Office open plan_FL=Building Story 1_SCH=A 2, !- Zone Name
  Perimeter_bot_ZN_1,                     !- Space Name
  Foundation,                             !- Outside Boundary Condition
  Bldg Kiva Foundation,                   !- Outside Boundary Condition Object
  NoSun,                                  !- Sun Exposure
  NoWind,                                 !- Wind Exposure
  ,                                       !- View Factor to Ground
  ,                                       !- Number of Vertices
  45.3375, 4.5732, 0,                     !- X,Y,Z Vertex 1 {m}
  49.911, 0, 0,                           !- X,Y,Z Vertex 2 {m}
  0, 0, 0,                                !- X,Y,Z Vertex 3 {m}
  4.5732, 4.5732, 0;                      !- X,Y,Z Vertex 4 {m}

SurfaceProperty:ExposedFoundationPerimeter,
  Perimeter_bot_ZN_1_Floor,               !- Surface Name
  TotalExposedPerimeter,                  !- Exposed Perimeter Calculation Method
  49.911,                                 !- Total Exposed Perimeter {m}
  ;                                       !- Exposed Perimeter Fraction {dimensionless}

BuildingSurface:Detailed,
  Perimeter_bot_ZN_1_Wall_East,           !- Name
  Wall,                                   !- Surface Type
  BTAP-Int-Wall,                          !- Construction Name
  ALL_ST=Office open plan_FL=Building Story 1_SCH=A 2, !- Zone Name
  Perimeter_bot_ZN_1,                     !- Space Name
  Surface,                                !- Outside Boundary Condition
  Perimeter_bot_ZN_2_Wall_South,          !- Outside Boundary Condition Object
  NoSun,                                  !- Sun Exposure
  NoWind,                                 !- Wind Exposure
  ,                                       !- View Factor to Ground
  ,                                       !- Number of Vertices
  49.911, 0, 2.7432,                      !- X,Y,Z Vertex 1 {m}
  49.911, 0, 0,                           !- X,Y,Z Vertex 2 {m}
  45.3375, 4.5732, 0,                     !- X,Y,Z Vertex 3 {m}
  45.3375, 4.5732, 2.7432;                !- X,Y,Z Vertex 4 {m}

BuildingSurface:Detailed,
  Perimeter_bot_ZN_1_Wall_North,          !- Name
  Wall,                                   !- Surface Type
  BTAP-Int-Wall,                          !- Construction Name
  ALL_ST=Office open plan_FL=Building Story 1_SCH=A 2, !- Zone Name
  Perimeter_bot_ZN_1,                     !- Space Name
  Surface,                                !- Outside Boundary Condition
  Core_bot_ZN_5_Wall_South,               !- Outside Boundary Condition Object
  NoSun,                                  !- Sun Exposure
  NoWind,                                 !- Wind Exposure
  ,                                       !- View Factor to Ground
  ,                                       !- Number of Vertices
  45.3375, 4.5732, 2.7432,                !- X,Y,Z Vertex 1 {m}
  45.3375, 4.5732, 0,                     !- X,Y,Z Vertex 2 {m}
  4.5732, 4.5732, 0,                      !- X,Y,Z Vertex 3 {m}
  4.5732, 4.5732, 2.7432;                 !- X,Y,Z Vertex 4 {m}

BuildingSurface:Detailed,
  Perimeter_bot_ZN_1_Wall_South,          !- Name
  Wall,                                   !- Surface Type
  BTAP-Ext-Wall-Mass:U-0.29,              !- Construction Name
  ALL_ST=Office open plan_FL=Building Story 1_SCH=A 2, !- Zone Name
  Perimeter_bot_ZN_1,                     !- Space Name
  Outdoors,                               !- Outside Boundary Condition
  ,                                       !- Outside Boundary Condition Object
  SunExposed,                             !- Sun Exposure
  WindExposed,                            !- Wind Exposure
  ,                                       !- View Factor to Ground
  ,                                       !- Number of Vertices
  0, 0, 2.7432,                           !- X,Y,Z Vertex 1 {m}
  0, 0, 0,                                !- X,Y,Z Vertex 2 {m}
  49.911, 0, 0,                           !- X,Y,Z Vertex 3 {m}
  49.911, 0, 2.7432;                      !- X,Y,Z Vertex 4 {m}

FenestrationSurface:Detailed,
  Perimeter_bot_ZN_1_Wall_South_FixedWindow, !- Name
  Window,                                 !- Surface Type
  BTAP-Ext-FixedWindow:U=0.280 SHGC=0.600, !- Construction Name
  Perimeter_bot_ZN_1_Wall_South,          !- Building Surface Name
  ,                                       !- Outside Boundary Condition Object
  ,                                       !- View Factor to Ground
  ,                                       !- Frame and Divider Name
  ,                                       !- Multiplier
  ,                                       !- Number of Vertices
  0.0254, 0, 2.08282354966887,            !- X,Y,Z Vertex 1 {m}
  0.0254, 0, 0.762,                       !- X,Y,Z Vertex 2 {m}
  49.8856, 0, 0.762,                      !- X,Y,Z Vertex 3 {m}
  49.8856, 0, 2.08282354966887;           !- X,Y,Z Vertex 4 {m}

BuildingSurface:Detailed,
  Perimeter_bot_ZN_1_Wall_West,           !- Name
  Wall,                                   !- Surface Type
  BTAP-Int-Wall,                          !- Construction Name
  ALL_ST=Office open plan_FL=Building Story 1_SCH=A 2, !- Zone Name
  Perimeter_bot_ZN_1,                     !- Space Name
  Surface,                                !- Outside Boundary Condition
  Perimeter_bot_ZN_4_Wall_South,          !- Outside Boundary Condition Object
  NoSun,                                  !- Sun Exposure
  NoWind,                                 !- Wind Exposure
  ,                                       !- View Factor to Ground
  ,                                       !- Number of Vertices
  4.5732, 4.5732, 2.7432,                 !- X,Y,Z Vertex 1 {m}
  4.5732, 4.5732, 0,                      !- X,Y,Z Vertex 2 {m}
  0, 0, 0,                                !- X,Y,Z Vertex 3 {m}
  0, 0, 2.7432;                           !- X,Y,Z Vertex 4 {m}

ZoneInfiltration:DesignFlowRate,
  Perimeter_bot_ZN_1 Infiltration,        !- Name
  Perimeter_bot_ZN_1,                     !- Zone or ZoneList or Space or SpaceList Name
  Always On Discrete,                     !- Schedule Name
  Flow/ExteriorArea,                      !- Design Flow Rate Calculation Method
  ,                                       !- Design Flow Rate {m3/s}
  ,                                       !- Flow Rate per Floor Area {m3/s-m2}
  0.00471177345157376,                    !- Flow Rate per Exterior Surface Area {m3/s-m2}
  ,                                       !- Air Changes per Hour {1/hr}
  0,                                      !- Constant Term Coefficient
  0,                                      !- Temperature Term Coefficient
  0.224,                                  !- Velocity Term Coefficient
  0;                                      !- Velocity Squared Term Coefficient

ZoneControl:Thermostat,
  ALL_ST=Office open plan_FL=Building Story 1_SCH=A 2 Thermostat, !- Name
  ALL_ST=Office open plan_FL=Building Story 1_SCH=A 2, !- Zone or ZoneList Name
  ALL_ST=Office open plan_FL=Building Story 1_SCH=A 2 Thermostat Schedule, !- Control Type Schedule Name
  ThermostatSetpoint:DualSetpoint,        !- Control 1 Object Type
  Space Function Office open plan Thermostat 42, !- Control 1 Name
  ,                                       !- Control 2 Object Type
  ,                                       !- Control 2 Name
  ,                                       !- Control 3 Object Type
  ,                                       !- Control 3 Name
  ,                                       !- Control 4 Object Type
  ,                                       !- Control 4 Name
  0;                                      !- Temperature Difference Between Cutout And Setpoint {deltaC}

Schedule:Compact,
  ALL_ST=Office open plan_FL=Building Story 1_SCH=A 2 Thermostat Schedule, !- Name
  ALL_ST=Office open plan_FL=Building Story 1_SCH=A 2 Thermostat Schedule Type Limits, !- Schedule Type Limits Name
  Through: 12/31,                         !- Field 1
  For: AllDays,                           !- Field 2
  Until: 24:00,                           !- Field 3
  4;                                      !- Field 4

ScheduleTypeLimits,
  ALL_ST=Office open plan_FL=Building Story 1_SCH=A 2 Thermostat Schedule Type Limits, !- Name
  0,                                      !- Lower Limit Value {BasedOnField A3}
  4,                                      !- Upper Limit Value {BasedOnField A3}
  DISCRETE;                               !- Numeric Type

ThermostatSetpoint:DualSetpoint,
  Space Function Office open plan Thermostat 42, !- Name
  NECB-A-Thermostat Setpoint-Heating,     !- Heating Setpoint Temperature Schedule Name
  NECB-A-Thermostat Setpoint-Cooling;     !- Cooling Setpoint Temperature Schedule Name

ZoneHVAC:EquipmentConnections,
  ALL_ST=Office open plan_FL=Building Story 1_SCH=A 2, !- Zone Name
  ALL_ST=Office open plan_FL=Building Story 1_SCH=A 2 Equipment List, !- Zone Conditioning Equipment List Name
  ALL_ST=Office open plan_FL=Building Story 1_SCH=A 2 Inlet Node List, !- Zone Air Inlet Node or NodeList Name
  ,                                       !- Zone Air Exhaust Node or NodeList Name
  ALL_ST=Office open plan_FL=Building Story 1_SCH=A 2 Zone Air Node, !- Zone Air Node Name
  ALL_ST=Office open plan_FL=Building Story 1_SCH=A 2 Return Node List; !- Zone Return Air Node or NodeList Name

NodeList,
  ALL_ST=Office open plan_FL=Building Story 1_SCH=A 2 Inlet Node List, !- Name
  Air Terminal Single Duct VAV Reheat 3 Outlet Air Node; !- Node Name 1

NodeList,
  ALL_ST=Office open plan_FL=Building Story 1_SCH=A 2 Return Node List, !- Name
  ALL_ST=Office open plan_FL=Building Story 1_SCH=A 2 Return Air Node; !- Node Name 1

ZoneHVAC:AirDistributionUnit,
  ADU Air Terminal Single Duct VAV Reheat 3, !- Name
  Air Terminal Single Duct VAV Reheat 3 Outlet Air Node, !- Air Distribution Unit Outlet Node Name
  AirTerminal:SingleDuct:VAV:Reheat,      !- Air Terminal Object Type
  Air Terminal Single Duct VAV Reheat 3;  !- Air Terminal Name

AirTerminal:SingleDuct:VAV:Reheat,
  Air Terminal Single Duct VAV Reheat 3,  !- Name
  Always On Discrete,                     !- Availability Schedule Name
  Air Terminal Single Duct VAV Reheat 3 Damper Outlet, !- Damper Air Outlet Node Name
  Air Terminal Single Duct VAV Reheat 3 Inlet Air Node, !- Air Inlet Node Name
  Autosize,                               !- Maximum Air Flow Rate {m3/s}
  Constant,                               !- Zone Minimum Air Flow Input Method
  0.3,                                    !- Constant Minimum Air Flow Fraction
  0,                                      !- Fixed Minimum Air Flow Rate {m3/s}
  ,                                       !- Minimum Air Flow Fraction Schedule Name
  Coil:Heating:Electric,                  !- Reheat Coil Object Type
  Coil Heating Electric 3,                !- Reheat Coil Name
  Autosize,                               !- Maximum Hot Water or Steam Flow Rate {m3/s}
  0,                                      !- Minimum Hot Water or Steam Flow Rate {m3/s}
  Air Terminal Single Duct VAV Reheat 3 Outlet Air Node, !- Air Outlet Node Name
  0.001,                                  !- Convergence Tolerance
  Normal,                                 !- Damper Heating Action
  Autocalculate,                          !- Maximum Flow per Zone Floor Area During Reheat {m3/s-m2}
  0.5,                                    !- Maximum Flow Fraction During Reheat
  43;                                     !- Maximum Reheat Air Temperature {C}

Coil:Heating:Electric,
  Coil Heating Electric 3,                !- Name
  Always On Discrete,                     !- Availability Schedule Name
  1,                                      !- Efficiency
  11195.1292991638,                       !- Nominal Capacity {W}
  Air Terminal Single Duct VAV Reheat 3 Damper Outlet, !- Air Inlet Node Name
  Air Terminal Single Duct VAV Reheat 3 Outlet Air Node; !- Air Outlet Node Name

ZoneHVAC:Baseboard:Convective:Electric,
  ZoneHVACBaseboardConvectiveElectric 2,  !- Name
  Always On Discrete,                     !- Availability Schedule Name
  ,                                       !- Heating Design Capacity Method
  Autosize,                               !- Heating Design Capacity {W}
  ,                                       !- Heating Design Capacity Per Floor Area {W/m2}
  ,                                       !- Fraction of Autosized Heating Design Capacity
  1;                                      !- Efficiency

ZoneHVAC:EquipmentList,
  ALL_ST=Office open plan_FL=Building Story 1_SCH=A 2 Equipment List, !- Name
  SequentialLoad,                         !- Load Distribution Scheme
  ZoneHVAC:AirDistributionUnit,           !- Zone Equipment Object Type 1
  ADU Air Terminal Single Duct VAV Reheat 3, !- Zone Equipment Name 1
  1,                                      !- Zone Equipment Cooling Sequence 1
  1,                                      !- Zone Equipment Heating or No-Load Sequence 1
  ,                                       !- Zone Equipment Sequential Cooling Fraction Schedule Name 1
  ,                                       !- Zone Equipment Sequential Heating Fraction Schedule Name 1
  ZoneHVAC:Baseboard:Convective:Electric, !- Zone Equipment Object Type 2
  ZoneHVACBaseboardConvectiveElectric 2,  !- Zone Equipment Name 2
  2,                                      !- Zone Equipment Cooling Sequence 2
  2,                                      !- Zone Equipment Heating or No-Load Sequence 2
  ,                                       !- Zone Equipment Sequential Cooling Fraction Schedule Name 2
  ;                                       !- Zone Equipment Sequential Heating Fraction Schedule Name 2

Sizing:Zone,
  ALL_ST=Office open plan_FL=Building Story 1_SCH=A 2, !- Zone or ZoneList Name
  TemperatureDifference,                  !- Zone Cooling Design Supply Air Temperature Input Method
  13,                                     !- Zone Cooling Design Supply Air Temperature {C}
  11,                                     !- Zone Cooling Design Supply Air Temperature Difference {deltaC}
  TemperatureDifference,                  !- Zone Heating Design Supply Air Temperature Input Method
  43,                                     !- Zone Heating Design Supply Air Temperature {C}
  21,                                     !- Zone Heating Design Supply Air Temperature Difference {deltaC}
  0.0085,                                 !- Zone Cooling Design Supply Air Humidity Ratio {kgWater/kgDryAir}
  0.008,                                  !- Zone Heating Design Supply Air Humidity Ratio {kgWater/kgDryAir}
  ALL_ST=Office open plan_FL=Building Story 1_SCH=A 2 DSOA Space List, !- Design Specification Outdoor Air Object Name
  1.3,                                    !- Zone Heating Sizing Factor
  1.1,                                    !- Zone Cooling Sizing Factor
  DesignDay,                              !- Cooling Design Air Flow Method
  0,                                      !- Cooling Design Air Flow Rate {m3/s}
  0.000762,                               !- Cooling Minimum Air Flow per Zone Floor Area {m3/s-m2}
  0,                                      !- Cooling Minimum Air Flow {m3/s}
  0,                                      !- Cooling Minimum Air Flow Fraction
  DesignDay,                              !- Heating Design Air Flow Method
  0,                                      !- Heating Design Air Flow Rate {m3/s}
  0.002032,                               !- Heating Maximum Air Flow per Zone Floor Area {m3/s-m2}
  0.1415762,                              !- Heating Maximum Air Flow {m3/s}
  0.3,                                    !- Heating Maximum Air Flow Fraction
  ,                                       !- Design Specification Zone Air Distribution Object Name
  No,                                     !- Account for Dedicated Outdoor Air System
  ,                                       !- Dedicated Outdoor Air System Control Strategy
  ,                                       !- Dedicated Outdoor Air Low Setpoint Temperature for Design {C}
  ,                                       !- Dedicated Outdoor Air High Setpoint Temperature for Design {C}
  Sensible Load Only No Latent Load,      !- Zone Load Sizing Method
  HumidityRatioDifference,                !- Zone Latent Cooling Design Supply Air Humidity Ratio Input Method
  ,                                       !- Zone Dehumidification Design Supply Air Humidity Ratio {kgWater/kgDryAir}
  0.005,                                  !- Zone Cooling Design Supply Air Humidity Ratio Difference {kgWater/kgDryAir}
  HumidityRatioDifference,                !- Zone Latent Heating Design Supply Air Humidity Ratio Input Method
  ,                                       !- Zone Humidification Design Supply Air Humidity Ratio {kgWater/kgDryAir}
  0.005,                                  !- Zone Humidification Design Supply Air Humidity Ratio Difference {kgWater/kgDryAir}
  ,                                       !- Zone Humidistat Dehumidification Set Point Schedule Name
  ,                                       !- Zone Humidistat Humidification Set Point Schedule Name
  Coincident;                             !- Type of Space Sum to Use

DesignSpecification:OutdoorAir:SpaceList,
  ALL_ST=Office open plan_FL=Building Story 1_SCH=A 2 DSOA Space List, !- Name
  Perimeter_bot_ZN_1,                     !- Space Name 1
  Space Function Office open plan Ventilation; !- Space Design Specification Outdoor Air Object Name 1

Zone,
  ALL_ST=Office open plan_FL=Building Story 1_SCH=A 3, !- Name
  0,                                      !- Direction of Relative North {deg}
  0,                                      !- X Origin {m}
  0,                                      !- Y Origin {m}
  0,                                      !- Z Origin {m}
  ,                                       !- Type
  1,                                      !- Multiplier
  ,                                       !- Ceiling Height {m}
  ,                                       !- Volume {m3}
  ,                                       !- Floor Area {m2}
  ,                                       !- Zone Inside Convection Algorithm
  ,                                       !- Zone Outside Convection Algorithm
  Yes;                                    !- Part of Total Floor Area

Space,
  Perimeter_bot_ZN_3,                     !- Name
  ALL_ST=Office open plan_FL=Building Story 1_SCH=A 3, !- Zone Name
  ,                                       !- Ceiling Height {m}
  568.769988336336,                       !- Volume {m3}
  ,                                       !- Floor Area {m2}
  Space Function Office open plan;        !- Space Type

BuildingSurface:Detailed,
  Perimeter_bot_ZN_3_Ceililng,            !- Name
  Ceiling,                                !- Surface Type
  BTAP-Int-Ceiling,                       !- Construction Name
  ALL_ST=Office open plan_FL=Building Story 1_SCH=A 3, !- Zone Name
  Perimeter_bot_ZN_3,                     !- Space Name
  Surface,                                !- Outside Boundary Condition
  FirstFloor_Plenum_Floor_3,              !- Outside Boundary Condition Object
  NoSun,                                  !- Sun Exposure
  NoWind,                                 !- Wind Exposure
  ,                                       !- View Factor to Ground
  ,                                       !- Number of Vertices
  45.3375, 28.7006, 2.7432,               !- X,Y,Z Vertex 1 {m}
  49.911, 33.2738, 2.7432,                !- X,Y,Z Vertex 2 {m}
  0, 33.2738, 2.7432,                     !- X,Y,Z Vertex 3 {m}
  4.5732, 28.7006, 2.7432;                !- X,Y,Z Vertex 4 {m}

BuildingSurface:Detailed,
  Perimeter_bot_ZN_3_Floor,               !- Name
  Floor,                                  !- Surface Type
  BTAP-Grnd-Floor-Mass:U-0.757_std,       !- Construction Name
  ALL_ST=Office open plan_FL=Building Story 1_SCH=A 3, !- Zone Name
  Perimeter_bot_ZN_3,                     !- Space Name
  Foundation,                             !- Outside Boundary Condition
  Bldg Kiva Foundation,                   !- Outside Boundary Condition Object
  NoSun,                                  !- Sun Exposure
  NoWind,                                 !- Wind Exposure
  ,                                       !- View Factor to Ground
  ,                                       !- Number of Vertices
  49.911, 33.2738, 0,                     !- X,Y,Z Vertex 1 {m}
  45.3375, 28.7006, 0,                    !- X,Y,Z Vertex 2 {m}
  4.5732, 28.7006, 0,                     !- X,Y,Z Vertex 3 {m}
  0, 33.2738, 0;                          !- X,Y,Z Vertex 4 {m}

SurfaceProperty:ExposedFoundationPerimeter,
  Perimeter_bot_ZN_3_Floor,               !- Surface Name
  TotalExposedPerimeter,                  !- Exposed Perimeter Calculation Method
  49.911,                                 !- Total Exposed Perimeter {m}
  ;                                       !- Exposed Perimeter Fraction {dimensionless}

BuildingSurface:Detailed,
  Perimeter_bot_ZN_3_Wall_East,           !- Name
  Wall,                                   !- Surface Type
  BTAP-Int-Wall,                          !- Construction Name
  ALL_ST=Office open plan_FL=Building Story 1_SCH=A 3, !- Zone Name
  Perimeter_bot_ZN_3,                     !- Space Name
  Surface,                                !- Outside Boundary Condition
  Perimeter_bot_ZN_2_Wall_North,          !- Outside Boundary Condition Object
  NoSun,                                  !- Sun Exposure
  NoWind,                                 !- Wind Exposure
  ,                                       !- View Factor to Ground
  ,                                       !- Number of Vertices
  45.3375, 28.7006, 2.7432,               !- X,Y,Z Vertex 1 {m}
  45.3375, 28.7006, 0,                    !- X,Y,Z Vertex 2 {m}
  49.911, 33.2738, 0,                     !- X,Y,Z Vertex 3 {m}
  49.911, 33.2738, 2.7432;                !- X,Y,Z Vertex 4 {m}

BuildingSurface:Detailed,
  Perimeter_bot_ZN_3_Wall_North,          !- Name
  Wall,                                   !- Surface Type
  BTAP-Ext-Wall-Mass:U-0.29,              !- Construction Name
  ALL_ST=Office open plan_FL=Building Story 1_SCH=A 3, !- Zone Name
  Perimeter_bot_ZN_3,                     !- Space Name
  Outdoors,                               !- Outside Boundary Condition
  ,                                       !- Outside Boundary Condition Object
  SunExposed,                             !- Sun Exposure
  WindExposed,                            !- Wind Exposure
  ,                                       !- View Factor to Ground
  ,                                       !- Number of Vertices
  49.911, 33.2738, 2.7432,                !- X,Y,Z Vertex 1 {m}
  49.911, 33.2738, 0,                     !- X,Y,Z Vertex 2 {m}
  0, 33.2738, 0,                          !- X,Y,Z Vertex 3 {m}
  0, 33.2738, 2.7432;                     !- X,Y,Z Vertex 4 {m}

FenestrationSurface:Detailed,
  Perimeter_bot_ZN_3_Wall_North_FixedWindow, !- Name
  Window,                                 !- Surface Type
  BTAP-Ext-FixedWindow:U=0.280 SHGC=0.600, !- Construction Name
  Perimeter_bot_ZN_3_Wall_North,          !- Building Surface Name
  ,                                       !- Outside Boundary Condition Object
  ,                                       !- View Factor to Ground
  ,                                       !- Frame and Divider Name
  ,                                       !- Multiplier
  ,                                       !- Number of Vertices
  49.8856, 33.2738, 2.08282354966887,     !- X,Y,Z Vertex 1 {m}
  49.8856, 33.2738, 0.762,                !- X,Y,Z Vertex 2 {m}
  0.0254000000000048, 33.2738, 0.762,     !- X,Y,Z Vertex 3 {m}
  0.0254000000000048, 33.2738, 2.08282354966887; !- X,Y,Z Vertex 4 {m}

BuildingSurface:Detailed,
  Perimeter_bot_ZN_3_Wall_South,          !- Name
  Wall,                                   !- Surface Type
  BTAP-Int-Wall,                          !- Construction Name
  ALL_ST=Office open plan_FL=Building Story 1_SCH=A 3, !- Zone Name
  Perimeter_bot_ZN_3,                     !- Space Name
  Surface,                                !- Outside Boundary Condition
  Core_bot_ZN_5_Wall_North,               !- Outside Boundary Condition Object
  NoSun,                                  !- Sun Exposure
  NoWind,                                 !- Wind Exposure
  ,                                       !- View Factor to Ground
  ,                                       !- Number of Vertices
  4.5732, 28.7006, 2.7432,                !- X,Y,Z Vertex 1 {m}
  4.5732, 28.7006, 0,                     !- X,Y,Z Vertex 2 {m}
  45.3375, 28.7006, 0,                    !- X,Y,Z Vertex 3 {m}
  45.3375, 28.7006, 2.7432;               !- X,Y,Z Vertex 4 {m}

BuildingSurface:Detailed,
  Perimeter_bot_ZN_3_Wall_West,           !- Name
  Wall,                                   !- Surface Type
  BTAP-Int-Wall,                          !- Construction Name
  ALL_ST=Office open plan_FL=Building Story 1_SCH=A 3, !- Zone Name
  Perimeter_bot_ZN_3,                     !- Space Name
  Surface,                                !- Outside Boundary Condition
  Perimeter_bot_ZN_4_Wall_North,          !- Outside Boundary Condition Object
  NoSun,                                  !- Sun Exposure
  NoWind,                                 !- Wind Exposure
  ,                                       !- View Factor to Ground
  ,                                       !- Number of Vertices
  0, 33.2738, 2.7432,                     !- X,Y,Z Vertex 1 {m}
  0, 33.2738, 0,                          !- X,Y,Z Vertex 2 {m}
  4.5732, 28.7006, 0,                     !- X,Y,Z Vertex 3 {m}
  4.5732, 28.7006, 2.7432;                !- X,Y,Z Vertex 4 {m}

ZoneInfiltration:DesignFlowRate,
  Perimeter_bot_ZN_3 Infiltration,        !- Name
  Perimeter_bot_ZN_3,                     !- Zone or ZoneList or Space or SpaceList Name
  Always On Discrete,                     !- Schedule Name
  Flow/ExteriorArea,                      !- Design Flow Rate Calculation Method
  ,                                       !- Design Flow Rate {m3/s}
  ,                                       !- Flow Rate per Floor Area {m3/s-m2}
  0.00471177345157376,                    !- Flow Rate per Exterior Surface Area {m3/s-m2}
  ,                                       !- Air Changes per Hour {1/hr}
  0,                                      !- Constant Term Coefficient
  0,                                      !- Temperature Term Coefficient
  0.224,                                  !- Velocity Term Coefficient
  0;                                      !- Velocity Squared Term Coefficient

ZoneControl:Thermostat,
  ALL_ST=Office open plan_FL=Building Story 1_SCH=A 3 Thermostat, !- Name
  ALL_ST=Office open plan_FL=Building Story 1_SCH=A 3, !- Zone or ZoneList Name
  ALL_ST=Office open plan_FL=Building Story 1_SCH=A 3 Thermostat Schedule, !- Control Type Schedule Name
  ThermostatSetpoint:DualSetpoint,        !- Control 1 Object Type
  Space Function Office open plan Thermostat 44, !- Control 1 Name
  ,                                       !- Control 2 Object Type
  ,                                       !- Control 2 Name
  ,                                       !- Control 3 Object Type
  ,                                       !- Control 3 Name
  ,                                       !- Control 4 Object Type
  ,                                       !- Control 4 Name
  0;                                      !- Temperature Difference Between Cutout And Setpoint {deltaC}

Schedule:Compact,
  ALL_ST=Office open plan_FL=Building Story 1_SCH=A 3 Thermostat Schedule, !- Name
  ALL_ST=Office open plan_FL=Building Story 1_SCH=A 3 Thermostat Schedule Type Limits, !- Schedule Type Limits Name
  Through: 12/31,                         !- Field 1
  For: AllDays,                           !- Field 2
  Until: 24:00,                           !- Field 3
  4;                                      !- Field 4

ScheduleTypeLimits,
  ALL_ST=Office open plan_FL=Building Story 1_SCH=A 3 Thermostat Schedule Type Limits, !- Name
  0,                                      !- Lower Limit Value {BasedOnField A3}
  4,                                      !- Upper Limit Value {BasedOnField A3}
  DISCRETE;                               !- Numeric Type

ThermostatSetpoint:DualSetpoint,
  Space Function Office open plan Thermostat 44, !- Name
  NECB-A-Thermostat Setpoint-Heating,     !- Heating Setpoint Temperature Schedule Name
  NECB-A-Thermostat Setpoint-Cooling;     !- Cooling Setpoint Temperature Schedule Name

ZoneHVAC:EquipmentConnections,
  ALL_ST=Office open plan_FL=Building Story 1_SCH=A 3, !- Zone Name
  ALL_ST=Office open plan_FL=Building Story 1_SCH=A 3 Equipment List, !- Zone Conditioning Equipment List Name
  ALL_ST=Office open plan_FL=Building Story 1_SCH=A 3 Inlet Node List, !- Zone Air Inlet Node or NodeList Name
  ,                                       !- Zone Air Exhaust Node or NodeList Name
  ALL_ST=Office open plan_FL=Building Story 1_SCH=A 3 Zone Air Node, !- Zone Air Node Name
  ALL_ST=Office open plan_FL=Building Story 1_SCH=A 3 Return Node List; !- Zone Return Air Node or NodeList Name

NodeList,
  ALL_ST=Office open plan_FL=Building Story 1_SCH=A 3 Inlet Node List, !- Name
  Air Terminal Single Duct VAV Reheat 4 Outlet Air Node; !- Node Name 1

NodeList,
  ALL_ST=Office open plan_FL=Building Story 1_SCH=A 3 Return Node List, !- Name
  ALL_ST=Office open plan_FL=Building Story 1_SCH=A 3 Return Air Node; !- Node Name 1

ZoneHVAC:AirDistributionUnit,
  ADU Air Terminal Single Duct VAV Reheat 4, !- Name
  Air Terminal Single Duct VAV Reheat 4 Outlet Air Node, !- Air Distribution Unit Outlet Node Name
  AirTerminal:SingleDuct:VAV:Reheat,      !- Air Terminal Object Type
  Air Terminal Single Duct VAV Reheat 4;  !- Air Terminal Name

AirTerminal:SingleDuct:VAV:Reheat,
  Air Terminal Single Duct VAV Reheat 4,  !- Name
  Always On Discrete,                     !- Availability Schedule Name
  Air Terminal Single Duct VAV Reheat 4 Damper Outlet, !- Damper Air Outlet Node Name
  Air Terminal Single Duct VAV Reheat 4 Inlet Air Node, !- Air Inlet Node Name
  Autosize,                               !- Maximum Air Flow Rate {m3/s}
  Constant,                               !- Zone Minimum Air Flow Input Method
  0.3,                                    !- Constant Minimum Air Flow Fraction
  0,                                      !- Fixed Minimum Air Flow Rate {m3/s}
  ,                                       !- Minimum Air Flow Fraction Schedule Name
  Coil:Heating:Electric,                  !- Reheat Coil Object Type
  Coil Heating Electric 4,                !- Reheat Coil Name
  Autosize,                               !- Maximum Hot Water or Steam Flow Rate {m3/s}
  0,                                      !- Minimum Hot Water or Steam Flow Rate {m3/s}
  Air Terminal Single Duct VAV Reheat 4 Outlet Air Node, !- Air Outlet Node Name
  0.001,                                  !- Convergence Tolerance
  Normal,                                 !- Damper Heating Action
  Autocalculate,                          !- Maximum Flow per Zone Floor Area During Reheat {m3/s-m2}
  0.5,                                    !- Maximum Flow Fraction During Reheat
  43;                                     !- Maximum Reheat Air Temperature {C}

Coil:Heating:Electric,
  Coil Heating Electric 4,                !- Name
  Always On Discrete,                     !- Availability Schedule Name
  1,                                      !- Efficiency
  10815.9966945648,                       !- Nominal Capacity {W}
  Air Terminal Single Duct VAV Reheat 4 Damper Outlet, !- Air Inlet Node Name
  Air Terminal Single Duct VAV Reheat 4 Outlet Air Node; !- Air Outlet Node Name

ZoneHVAC:Baseboard:Convective:Electric,
  ZoneHVACBaseboardConvectiveElectric 3,  !- Name
  Always On Discrete,                     !- Availability Schedule Name
  ,                                       !- Heating Design Capacity Method
  Autosize,                               !- Heating Design Capacity {W}
  ,                                       !- Heating Design Capacity Per Floor Area {W/m2}
  ,                                       !- Fraction of Autosized Heating Design Capacity
  1;                                      !- Efficiency

ZoneHVAC:EquipmentList,
  ALL_ST=Office open plan_FL=Building Story 1_SCH=A 3 Equipment List, !- Name
  SequentialLoad,                         !- Load Distribution Scheme
  ZoneHVAC:AirDistributionUnit,           !- Zone Equipment Object Type 1
  ADU Air Terminal Single Duct VAV Reheat 4, !- Zone Equipment Name 1
  1,                                      !- Zone Equipment Cooling Sequence 1
  1,                                      !- Zone Equipment Heating or No-Load Sequence 1
  ,                                       !- Zone Equipment Sequential Cooling Fraction Schedule Name 1
  ,                                       !- Zone Equipment Sequential Heating Fraction Schedule Name 1
  ZoneHVAC:Baseboard:Convective:Electric, !- Zone Equipment Object Type 2
  ZoneHVACBaseboardConvectiveElectric 3,  !- Zone Equipment Name 2
  2,                                      !- Zone Equipment Cooling Sequence 2
  2,                                      !- Zone Equipment Heating or No-Load Sequence 2
  ,                                       !- Zone Equipment Sequential Cooling Fraction Schedule Name 2
  ;                                       !- Zone Equipment Sequential Heating Fraction Schedule Name 2

Sizing:Zone,
  ALL_ST=Office open plan_FL=Building Story 1_SCH=A 3, !- Zone or ZoneList Name
  TemperatureDifference,                  !- Zone Cooling Design Supply Air Temperature Input Method
  13,                                     !- Zone Cooling Design Supply Air Temperature {C}
  11,                                     !- Zone Cooling Design Supply Air Temperature Difference {deltaC}
  TemperatureDifference,                  !- Zone Heating Design Supply Air Temperature Input Method
  43,                                     !- Zone Heating Design Supply Air Temperature {C}
  21,                                     !- Zone Heating Design Supply Air Temperature Difference {deltaC}
  0.0085,                                 !- Zone Cooling Design Supply Air Humidity Ratio {kgWater/kgDryAir}
  0.008,                                  !- Zone Heating Design Supply Air Humidity Ratio {kgWater/kgDryAir}
  ALL_ST=Office open plan_FL=Building Story 1_SCH=A 3 DSOA Space List, !- Design Specification Outdoor Air Object Name
  1.3,                                    !- Zone Heating Sizing Factor
  1.1,                                    !- Zone Cooling Sizing Factor
  DesignDay,                              !- Cooling Design Air Flow Method
  0,                                      !- Cooling Design Air Flow Rate {m3/s}
  0.000762,                               !- Cooling Minimum Air Flow per Zone Floor Area {m3/s-m2}
  0,                                      !- Cooling Minimum Air Flow {m3/s}
  0,                                      !- Cooling Minimum Air Flow Fraction
  DesignDay,                              !- Heating Design Air Flow Method
  0,                                      !- Heating Design Air Flow Rate {m3/s}
  0.002032,                               !- Heating Maximum Air Flow per Zone Floor Area {m3/s-m2}
  0.1415762,                              !- Heating Maximum Air Flow {m3/s}
  0.3,                                    !- Heating Maximum Air Flow Fraction
  ,                                       !- Design Specification Zone Air Distribution Object Name
  No,                                     !- Account for Dedicated Outdoor Air System
  ,                                       !- Dedicated Outdoor Air System Control Strategy
  ,                                       !- Dedicated Outdoor Air Low Setpoint Temperature for Design {C}
  ,                                       !- Dedicated Outdoor Air High Setpoint Temperature for Design {C}
  Sensible Load Only No Latent Load,      !- Zone Load Sizing Method
  HumidityRatioDifference,                !- Zone Latent Cooling Design Supply Air Humidity Ratio Input Method
  ,                                       !- Zone Dehumidification Design Supply Air Humidity Ratio {kgWater/kgDryAir}
  0.005,                                  !- Zone Cooling Design Supply Air Humidity Ratio Difference {kgWater/kgDryAir}
  HumidityRatioDifference,                !- Zone Latent Heating Design Supply Air Humidity Ratio Input Method
  ,                                       !- Zone Humidification Design Supply Air Humidity Ratio {kgWater/kgDryAir}
  0.005,                                  !- Zone Humidification Design Supply Air Humidity Ratio Difference {kgWater/kgDryAir}
  ,                                       !- Zone Humidistat Dehumidification Set Point Schedule Name
  ,                                       !- Zone Humidistat Humidification Set Point Schedule Name
  Coincident;                             !- Type of Space Sum to Use

DesignSpecification:OutdoorAir:SpaceList,
  ALL_ST=Office open plan_FL=Building Story 1_SCH=A 3 DSOA Space List, !- Name
  Perimeter_bot_ZN_3,                     !- Space Name 1
  Space Function Office open plan Ventilation; !- Space Design Specification Outdoor Air Object Name 1

Zone,
  ALL_ST=Office open plan_FL=Building Story 1_SCH=A 4, !- Name
  0,                                      !- Direction of Relative North {deg}
  0,                                      !- X Origin {m}
  0,                                      !- Y Origin {m}
  0,                                      !- Z Origin {m}
  ,                                       !- Type
  1,                                      !- Multiplier
  ,                                       !- Ceiling Height {m}
  ,                                       !- Volume {m3}
  ,                                       !- Floor Area {m2}
  ,                                       !- Zone Inside Convection Algorithm
  ,                                       !- Zone Outside Convection Algorithm
  Yes;                                    !- Part of Total Floor Area

Space,
  Perimeter_bot_ZN_4,                     !- Name
  ALL_ST=Office open plan_FL=Building Story 1_SCH=A 4, !- Zone Name
  ,                                       !- Ceiling Height {m}
  360.054831409344,                       !- Volume {m3}
  ,                                       !- Floor Area {m2}
  Space Function Office open plan;        !- Space Type

BuildingSurface:Detailed,
  Perimeter_bot_ZN_4_Ceiling,             !- Name
  Ceiling,                                !- Surface Type
  BTAP-Int-Ceiling,                       !- Construction Name
  ALL_ST=Office open plan_FL=Building Story 1_SCH=A 4, !- Zone Name
  Perimeter_bot_ZN_4,                     !- Space Name
  Surface,                                !- Outside Boundary Condition
  FirstFloor_Plenum_Floor_4,              !- Outside Boundary Condition Object
  NoSun,                                  !- Sun Exposure
  NoWind,                                 !- Wind Exposure
  ,                                       !- View Factor to Ground
  ,                                       !- Number of Vertices
  0, 0, 2.7432,                           !- X,Y,Z Vertex 1 {m}
  4.5732, 4.5732, 2.7432,                 !- X,Y,Z Vertex 2 {m}
  4.5732, 28.7006, 2.7432,                !- X,Y,Z Vertex 3 {m}
  0, 33.2738, 2.7432;                     !- X,Y,Z Vertex 4 {m}

BuildingSurface:Detailed,
  Perimeter_bot_ZN_4_Floor,               !- Name
  Floor,                                  !- Surface Type
  BTAP-Grnd-Floor-Mass:U-0.757_std,       !- Construction Name
  ALL_ST=Office open plan_FL=Building Story 1_SCH=A 4, !- Zone Name
  Perimeter_bot_ZN_4,                     !- Space Name
  Foundation,                             !- Outside Boundary Condition
  Bldg Kiva Foundation,                   !- Outside Boundary Condition Object
  NoSun,                                  !- Sun Exposure
  NoWind,                                 !- Wind Exposure
  ,                                       !- View Factor to Ground
  ,                                       !- Number of Vertices
  0, 33.2738, 0,                          !- X,Y,Z Vertex 1 {m}
  4.5732, 28.7006, 0,                     !- X,Y,Z Vertex 2 {m}
  4.5732, 4.5732, 0,                      !- X,Y,Z Vertex 3 {m}
  0, 0, 0;                                !- X,Y,Z Vertex 4 {m}

SurfaceProperty:ExposedFoundationPerimeter,
  Perimeter_bot_ZN_4_Floor,               !- Surface Name
  TotalExposedPerimeter,                  !- Exposed Perimeter Calculation Method
  33.2738,                                !- Total Exposed Perimeter {m}
  ;                                       !- Exposed Perimeter Fraction {dimensionless}

BuildingSurface:Detailed,
  Perimeter_bot_ZN_4_Wall_East,           !- Name
  Wall,                                   !- Surface Type
  BTAP-Int-Wall,                          !- Construction Name
  ALL_ST=Office open plan_FL=Building Story 1_SCH=A 4, !- Zone Name
  Perimeter_bot_ZN_4,                     !- Space Name
  Surface,                                !- Outside Boundary Condition
  Core_bot_ZN_5_Wall_West,                !- Outside Boundary Condition Object
  NoSun,                                  !- Sun Exposure
  NoWind,                                 !- Wind Exposure
  ,                                       !- View Factor to Ground
  ,                                       !- Number of Vertices
  4.5732, 4.5732, 2.7432,                 !- X,Y,Z Vertex 1 {m}
  4.5732, 4.5732, 0,                      !- X,Y,Z Vertex 2 {m}
  4.5732, 28.7006, 0,                     !- X,Y,Z Vertex 3 {m}
  4.5732, 28.7006, 2.7432;                !- X,Y,Z Vertex 4 {m}

BuildingSurface:Detailed,
  Perimeter_bot_ZN_4_Wall_North,          !- Name
  Wall,                                   !- Surface Type
  BTAP-Int-Wall,                          !- Construction Name
  ALL_ST=Office open plan_FL=Building Story 1_SCH=A 4, !- Zone Name
  Perimeter_bot_ZN_4,                     !- Space Name
  Surface,                                !- Outside Boundary Condition
  Perimeter_bot_ZN_3_Wall_West,           !- Outside Boundary Condition Object
  NoSun,                                  !- Sun Exposure
  NoWind,                                 !- Wind Exposure
  ,                                       !- View Factor to Ground
  ,                                       !- Number of Vertices
  4.5732, 28.7006, 2.7432,                !- X,Y,Z Vertex 1 {m}
  4.5732, 28.7006, 0,                     !- X,Y,Z Vertex 2 {m}
  0, 33.2738, 0,                          !- X,Y,Z Vertex 3 {m}
  0, 33.2738, 2.7432;                     !- X,Y,Z Vertex 4 {m}

BuildingSurface:Detailed,
  Perimeter_bot_ZN_4_Wall_South,          !- Name
  Wall,                                   !- Surface Type
  BTAP-Int-Wall,                          !- Construction Name
  ALL_ST=Office open plan_FL=Building Story 1_SCH=A 4, !- Zone Name
  Perimeter_bot_ZN_4,                     !- Space Name
  Surface,                                !- Outside Boundary Condition
  Perimeter_bot_ZN_1_Wall_West,           !- Outside Boundary Condition Object
  NoSun,                                  !- Sun Exposure
  NoWind,                                 !- Wind Exposure
  ,                                       !- View Factor to Ground
  ,                                       !- Number of Vertices
  0, 0, 2.7432,                           !- X,Y,Z Vertex 1 {m}
  0, 0, 0,                                !- X,Y,Z Vertex 2 {m}
  4.5732, 4.5732, 0,                      !- X,Y,Z Vertex 3 {m}
  4.5732, 4.5732, 2.7432;                 !- X,Y,Z Vertex 4 {m}

BuildingSurface:Detailed,
  Perimeter_bot_ZN_4_Wall_West,           !- Name
  Wall,                                   !- Surface Type
  BTAP-Ext-Wall-Mass:U-0.29,              !- Construction Name
  ALL_ST=Office open plan_FL=Building Story 1_SCH=A 4, !- Zone Name
  Perimeter_bot_ZN_4,                     !- Space Name
  Outdoors,                               !- Outside Boundary Condition
  ,                                       !- Outside Boundary Condition Object
  SunExposed,                             !- Sun Exposure
  WindExposed,                            !- Wind Exposure
  ,                                       !- View Factor to Ground
  ,                                       !- Number of Vertices
  0, 33.2738, 2.7432,                     !- X,Y,Z Vertex 1 {m}
  0, 33.2738, 0,                          !- X,Y,Z Vertex 2 {m}
  0, 0, 0,                                !- X,Y,Z Vertex 3 {m}
  0, 0, 2.7432;                           !- X,Y,Z Vertex 4 {m}

FenestrationSurface:Detailed,
  Perimeter_bot_ZN_4_Wall_West_FixedWindow, !- Name
  Window,                                 !- Surface Type
  BTAP-Ext-FixedWindow:U=0.280 SHGC=0.600, !- Construction Name
  Perimeter_bot_ZN_4_Wall_West,           !- Building Surface Name
  ,                                       !- Outside Boundary Condition Object
  ,                                       !- View Factor to Ground
  ,                                       !- Frame and Divider Name
  ,                                       !- Multiplier
  ,                                       !- Number of Vertices
  0, 33.2484, 2.08349676443909,           !- X,Y,Z Vertex 1 {m}
  0, 33.2484, 0.762,                      !- X,Y,Z Vertex 2 {m}
  0, 0.0254000000000048, 0.762,           !- X,Y,Z Vertex 3 {m}
  0, 0.0254000000000048, 2.08349676443909; !- X,Y,Z Vertex 4 {m}

ZoneInfiltration:DesignFlowRate,
  Perimeter_bot_ZN_4 Infiltration,        !- Name
  Perimeter_bot_ZN_4,                     !- Zone or ZoneList or Space or SpaceList Name
  Always On Discrete,                     !- Schedule Name
  Flow/ExteriorArea,                      !- Design Flow Rate Calculation Method
  ,                                       !- Design Flow Rate {m3/s}
  ,                                       !- Flow Rate per Floor Area {m3/s-m2}
  0.00471177345157376,                    !- Flow Rate per Exterior Surface Area {m3/s-m2}
  ,                                       !- Air Changes per Hour {1/hr}
  0,                                      !- Constant Term Coefficient
  0,                                      !- Temperature Term Coefficient
  0.224,                                  !- Velocity Term Coefficient
  0;                                      !- Velocity Squared Term Coefficient

ZoneControl:Thermostat,
  ALL_ST=Office open plan_FL=Building Story 1_SCH=A 4 Thermostat, !- Name
  ALL_ST=Office open plan_FL=Building Story 1_SCH=A 4, !- Zone or ZoneList Name
  ALL_ST=Office open plan_FL=Building Story 1_SCH=A 4 Thermostat Schedule, !- Control Type Schedule Name
  ThermostatSetpoint:DualSetpoint,        !- Control 1 Object Type
  Space Function Office open plan Thermostat 45, !- Control 1 Name
  ,                                       !- Control 2 Object Type
  ,                                       !- Control 2 Name
  ,                                       !- Control 3 Object Type
  ,                                       !- Control 3 Name
  ,                                       !- Control 4 Object Type
  ,                                       !- Control 4 Name
  0;                                      !- Temperature Difference Between Cutout And Setpoint {deltaC}

Schedule:Compact,
  ALL_ST=Office open plan_FL=Building Story 1_SCH=A 4 Thermostat Schedule, !- Name
  ALL_ST=Office open plan_FL=Building Story 1_SCH=A 4 Thermostat Schedule Type Limits, !- Schedule Type Limits Name
  Through: 12/31,                         !- Field 1
  For: AllDays,                           !- Field 2
  Until: 24:00,                           !- Field 3
  4;                                      !- Field 4

ScheduleTypeLimits,
  ALL_ST=Office open plan_FL=Building Story 1_SCH=A 4 Thermostat Schedule Type Limits, !- Name
  0,                                      !- Lower Limit Value {BasedOnField A3}
  4,                                      !- Upper Limit Value {BasedOnField A3}
  DISCRETE;                               !- Numeric Type

ThermostatSetpoint:DualSetpoint,
  Space Function Office open plan Thermostat 45, !- Name
  NECB-A-Thermostat Setpoint-Heating,     !- Heating Setpoint Temperature Schedule Name
  NECB-A-Thermostat Setpoint-Cooling;     !- Cooling Setpoint Temperature Schedule Name

ZoneHVAC:EquipmentConnections,
  ALL_ST=Office open plan_FL=Building Story 1_SCH=A 4, !- Zone Name
  ALL_ST=Office open plan_FL=Building Story 1_SCH=A 4 Equipment List, !- Zone Conditioning Equipment List Name
  ALL_ST=Office open plan_FL=Building Story 1_SCH=A 4 Inlet Node List, !- Zone Air Inlet Node or NodeList Name
  ,                                       !- Zone Air Exhaust Node or NodeList Name
  ALL_ST=Office open plan_FL=Building Story 1_SCH=A 4 Zone Air Node, !- Zone Air Node Name
  ALL_ST=Office open plan_FL=Building Story 1_SCH=A 4 Return Node List; !- Zone Return Air Node or NodeList Name

NodeList,
  ALL_ST=Office open plan_FL=Building Story 1_SCH=A 4 Inlet Node List, !- Name
  Air Terminal Single Duct VAV Reheat 5 Outlet Air Node; !- Node Name 1

NodeList,
  ALL_ST=Office open plan_FL=Building Story 1_SCH=A 4 Return Node List, !- Name
  ALL_ST=Office open plan_FL=Building Story 1_SCH=A 4 Return Air Node; !- Node Name 1

ZoneHVAC:AirDistributionUnit,
  ADU Air Terminal Single Duct VAV Reheat 5, !- Name
  Air Terminal Single Duct VAV Reheat 5 Outlet Air Node, !- Air Distribution Unit Outlet Node Name
  AirTerminal:SingleDuct:VAV:Reheat,      !- Air Terminal Object Type
  Air Terminal Single Duct VAV Reheat 5;  !- Air Terminal Name

AirTerminal:SingleDuct:VAV:Reheat,
  Air Terminal Single Duct VAV Reheat 5,  !- Name
  Always On Discrete,                     !- Availability Schedule Name
  Air Terminal Single Duct VAV Reheat 5 Damper Outlet, !- Damper Air Outlet Node Name
  Air Terminal Single Duct VAV Reheat 5 Inlet Air Node, !- Air Inlet Node Name
  Autosize,                               !- Maximum Air Flow Rate {m3/s}
  Constant,                               !- Zone Minimum Air Flow Input Method
  0.3,                                    !- Constant Minimum Air Flow Fraction
  0,                                      !- Fixed Minimum Air Flow Rate {m3/s}
  ,                                       !- Minimum Air Flow Fraction Schedule Name
  Coil:Heating:Electric,                  !- Reheat Coil Object Type
  Coil Heating Electric 5,                !- Reheat Coil Name
  Autosize,                               !- Maximum Hot Water or Steam Flow Rate {m3/s}
  0,                                      !- Minimum Hot Water or Steam Flow Rate {m3/s}
  Air Terminal Single Duct VAV Reheat 5 Outlet Air Node, !- Air Outlet Node Name
  0.001,                                  !- Convergence Tolerance
  Normal,                                 !- Damper Heating Action
  Autocalculate,                          !- Maximum Flow per Zone Floor Area During Reheat {m3/s-m2}
  0.5,                                    !- Maximum Flow Fraction During Reheat
  43;                                     !- Maximum Reheat Air Temperature {C}

Coil:Heating:Electric,
  Coil Heating Electric 5,                !- Name
  Always On Discrete,                     !- Availability Schedule Name
  1,                                      !- Efficiency
  11297.1334934235,                       !- Nominal Capacity {W}
  Air Terminal Single Duct VAV Reheat 5 Damper Outlet, !- Air Inlet Node Name
  Air Terminal Single Duct VAV Reheat 5 Outlet Air Node; !- Air Outlet Node Name

ZoneHVAC:Baseboard:Convective:Electric,
  ZoneHVACBaseboardConvectiveElectric 4,  !- Name
  Always On Discrete,                     !- Availability Schedule Name
  ,                                       !- Heating Design Capacity Method
  Autosize,                               !- Heating Design Capacity {W}
  ,                                       !- Heating Design Capacity Per Floor Area {W/m2}
  ,                                       !- Fraction of Autosized Heating Design Capacity
  1;                                      !- Efficiency

ZoneHVAC:EquipmentList,
  ALL_ST=Office open plan_FL=Building Story 1_SCH=A 4 Equipment List, !- Name
  SequentialLoad,                         !- Load Distribution Scheme
  ZoneHVAC:AirDistributionUnit,           !- Zone Equipment Object Type 1
  ADU Air Terminal Single Duct VAV Reheat 5, !- Zone Equipment Name 1
  1,                                      !- Zone Equipment Cooling Sequence 1
  1,                                      !- Zone Equipment Heating or No-Load Sequence 1
  ,                                       !- Zone Equipment Sequential Cooling Fraction Schedule Name 1
  ,                                       !- Zone Equipment Sequential Heating Fraction Schedule Name 1
  ZoneHVAC:Baseboard:Convective:Electric, !- Zone Equipment Object Type 2
  ZoneHVACBaseboardConvectiveElectric 4,  !- Zone Equipment Name 2
  2,                                      !- Zone Equipment Cooling Sequence 2
  2,                                      !- Zone Equipment Heating or No-Load Sequence 2
  ,                                       !- Zone Equipment Sequential Cooling Fraction Schedule Name 2
  ;                                       !- Zone Equipment Sequential Heating Fraction Schedule Name 2

Sizing:Zone,
  ALL_ST=Office open plan_FL=Building Story 1_SCH=A 4, !- Zone or ZoneList Name
  TemperatureDifference,                  !- Zone Cooling Design Supply Air Temperature Input Method
  13,                                     !- Zone Cooling Design Supply Air Temperature {C}
  11,                                     !- Zone Cooling Design Supply Air Temperature Difference {deltaC}
  TemperatureDifference,                  !- Zone Heating Design Supply Air Temperature Input Method
  43,                                     !- Zone Heating Design Supply Air Temperature {C}
  21,                                     !- Zone Heating Design Supply Air Temperature Difference {deltaC}
  0.0085,                                 !- Zone Cooling Design Supply Air Humidity Ratio {kgWater/kgDryAir}
  0.008,                                  !- Zone Heating Design Supply Air Humidity Ratio {kgWater/kgDryAir}
  ALL_ST=Office open plan_FL=Building Story 1_SCH=A 4 DSOA Space List, !- Design Specification Outdoor Air Object Name
  1.3,                                    !- Zone Heating Sizing Factor
  1.1,                                    !- Zone Cooling Sizing Factor
  DesignDay,                              !- Cooling Design Air Flow Method
  0,                                      !- Cooling Design Air Flow Rate {m3/s}
  0.000762,                               !- Cooling Minimum Air Flow per Zone Floor Area {m3/s-m2}
  0,                                      !- Cooling Minimum Air Flow {m3/s}
  0,                                      !- Cooling Minimum Air Flow Fraction
  DesignDay,                              !- Heating Design Air Flow Method
  0,                                      !- Heating Design Air Flow Rate {m3/s}
  0.002032,                               !- Heating Maximum Air Flow per Zone Floor Area {m3/s-m2}
  0.1415762,                              !- Heating Maximum Air Flow {m3/s}
  0.3,                                    !- Heating Maximum Air Flow Fraction
  ,                                       !- Design Specification Zone Air Distribution Object Name
  No,                                     !- Account for Dedicated Outdoor Air System
  ,                                       !- Dedicated Outdoor Air System Control Strategy
  ,                                       !- Dedicated Outdoor Air Low Setpoint Temperature for Design {C}
  ,                                       !- Dedicated Outdoor Air High Setpoint Temperature for Design {C}
  Sensible Load Only No Latent Load,      !- Zone Load Sizing Method
  HumidityRatioDifference,                !- Zone Latent Cooling Design Supply Air Humidity Ratio Input Method
  ,                                       !- Zone Dehumidification Design Supply Air Humidity Ratio {kgWater/kgDryAir}
  0.005,                                  !- Zone Cooling Design Supply Air Humidity Ratio Difference {kgWater/kgDryAir}
  HumidityRatioDifference,                !- Zone Latent Heating Design Supply Air Humidity Ratio Input Method
  ,                                       !- Zone Humidification Design Supply Air Humidity Ratio {kgWater/kgDryAir}
  0.005,                                  !- Zone Humidification Design Supply Air Humidity Ratio Difference {kgWater/kgDryAir}
  ,                                       !- Zone Humidistat Dehumidification Set Point Schedule Name
  ,                                       !- Zone Humidistat Humidification Set Point Schedule Name
  Coincident;                             !- Type of Space Sum to Use

DesignSpecification:OutdoorAir:SpaceList,
  ALL_ST=Office open plan_FL=Building Story 1_SCH=A 4 DSOA Space List, !- Name
  Perimeter_bot_ZN_4,                     !- Space Name 1
  Space Function Office open plan Ventilation; !- Space Design Specification Outdoor Air Object Name 1

Zone,
  ALL_ST=Office open plan_FL=Building Story 2_SCH=A, !- Name
  0,                                      !- Direction of Relative North {deg}
  0,                                      !- X Origin {m}
  0,                                      !- Y Origin {m}
  0,                                      !- Z Origin {m}
  ,                                       !- Type
  1,                                      !- Multiplier
  ,                                       !- Ceiling Height {m}
  ,                                       !- Volume {m3}
  ,                                       !- Floor Area {m2}
  ,                                       !- Zone Inside Convection Algorithm
  ,                                       !- Zone Outside Convection Algorithm
  Yes;                                    !- Part of Total Floor Area

Space,
  Core_mid,                               !- Name
  ALL_ST=Office open plan_FL=Building Story 2_SCH=A, !- Zone Name
  ,                                       !- Ceiling Height {m}
  2698.03752381662,                       !- Volume {m3}
  ,                                       !- Floor Area {m2}
  Space Function Office open plan;        !- Space Type

BuildingSurface:Detailed,
  Core_mid_ceiling,                       !- Name
  Ceiling,                                !- Surface Type
  BTAP-Int-Ceiling,                       !- Construction Name
  ALL_ST=Office open plan_FL=Building Story 2_SCH=A, !- Zone Name
  Core_mid,                               !- Space Name
  Surface,                                !- Outside Boundary Condition
  MidFloor_Plenum_Floor_5,                !- Outside Boundary Condition Object
  NoSun,                                  !- Sun Exposure
  NoWind,                                 !- Wind Exposure
  ,                                       !- View Factor to Ground
  ,                                       !- Number of Vertices
  45.3375, 4.5732, 6.7056,                !- X,Y,Z Vertex 1 {m}
  45.3375, 28.7006, 6.7056,               !- X,Y,Z Vertex 2 {m}
  4.5732, 28.7006, 6.7056,                !- X,Y,Z Vertex 3 {m}
  4.5732, 4.5732, 6.7056;                 !- X,Y,Z Vertex 4 {m}

BuildingSurface:Detailed,
  Core_mid_ZN_5_Floor,                    !- Name
  Floor,                                  !- Surface Type
  BTAP-Int-Floor,                         !- Construction Name
  ALL_ST=Office open plan_FL=Building Story 2_SCH=A, !- Zone Name
  Core_mid,                               !- Space Name
  Surface,                                !- Outside Boundary Condition
  FirstFloor_Plenum_Ceiling_5,            !- Outside Boundary Condition Object
  NoSun,                                  !- Sun Exposure
  NoWind,                                 !- Wind Exposure
  ,                                       !- View Factor to Ground
  ,                                       !- Number of Vertices
  45.3375, 28.7006, 3.9624,               !- X,Y,Z Vertex 1 {m}
  45.3375, 4.5732, 3.9624,                !- X,Y,Z Vertex 2 {m}
  4.5732, 4.5732, 3.9624,                 !- X,Y,Z Vertex 3 {m}
  4.5732, 28.7006, 3.9624;                !- X,Y,Z Vertex 4 {m}

BuildingSurface:Detailed,
  Core_mid_ZN_5_Wall_East,                !- Name
  Wall,                                   !- Surface Type
  BTAP-Int-Wall,                          !- Construction Name
  ALL_ST=Office open plan_FL=Building Story 2_SCH=A, !- Zone Name
  Core_mid,                               !- Space Name
  Surface,                                !- Outside Boundary Condition
  Perimeter_mid_ZN_2_Wall_West,           !- Outside Boundary Condition Object
  NoSun,                                  !- Sun Exposure
  NoWind,                                 !- Wind Exposure
  ,                                       !- View Factor to Ground
  ,                                       !- Number of Vertices
  45.3375, 4.5732, 6.7056,                !- X,Y,Z Vertex 1 {m}
  45.3375, 4.5732, 3.9624,                !- X,Y,Z Vertex 2 {m}
  45.3375, 28.7006, 3.9624,               !- X,Y,Z Vertex 3 {m}
  45.3375, 28.7006, 6.7056;               !- X,Y,Z Vertex 4 {m}

BuildingSurface:Detailed,
  Core_mid_ZN_5_Wall_North,               !- Name
  Wall,                                   !- Surface Type
  BTAP-Int-Wall,                          !- Construction Name
  ALL_ST=Office open plan_FL=Building Story 2_SCH=A, !- Zone Name
  Core_mid,                               !- Space Name
  Surface,                                !- Outside Boundary Condition
  Perimeter_mid_ZN_3_Wall_South,          !- Outside Boundary Condition Object
  NoSun,                                  !- Sun Exposure
  NoWind,                                 !- Wind Exposure
  ,                                       !- View Factor to Ground
  ,                                       !- Number of Vertices
  45.3375, 28.7006, 6.7056,               !- X,Y,Z Vertex 1 {m}
  45.3375, 28.7006, 3.9624,               !- X,Y,Z Vertex 2 {m}
  4.5732, 28.7006, 3.9624,                !- X,Y,Z Vertex 3 {m}
  4.5732, 28.7006, 6.7056;                !- X,Y,Z Vertex 4 {m}

BuildingSurface:Detailed,
  Core_mid_ZN_5_Wall_South,               !- Name
  Wall,                                   !- Surface Type
  BTAP-Int-Wall,                          !- Construction Name
  ALL_ST=Office open plan_FL=Building Story 2_SCH=A, !- Zone Name
  Core_mid,                               !- Space Name
  Surface,                                !- Outside Boundary Condition
  Perimeter_mid_ZN_1_Wall_North,          !- Outside Boundary Condition Object
  NoSun,                                  !- Sun Exposure
  NoWind,                                 !- Wind Exposure
  ,                                       !- View Factor to Ground
  ,                                       !- Number of Vertices
  4.5732, 4.5732, 6.7056,                 !- X,Y,Z Vertex 1 {m}
  4.5732, 4.5732, 3.9624,                 !- X,Y,Z Vertex 2 {m}
  45.3375, 4.5732, 3.9624,                !- X,Y,Z Vertex 3 {m}
  45.3375, 4.5732, 6.7056;                !- X,Y,Z Vertex 4 {m}

BuildingSurface:Detailed,
  Core_mid_ZN_5_Wall_West,                !- Name
  Wall,                                   !- Surface Type
  BTAP-Int-Wall,                          !- Construction Name
  ALL_ST=Office open plan_FL=Building Story 2_SCH=A, !- Zone Name
  Core_mid,                               !- Space Name
  Surface,                                !- Outside Boundary Condition
  Perimeter_mid_ZN_4_Wall_East,           !- Outside Boundary Condition Object
  NoSun,                                  !- Sun Exposure
  NoWind,                                 !- Wind Exposure
  ,                                       !- View Factor to Ground
  ,                                       !- Number of Vertices
  4.5732, 28.7006, 6.7056,                !- X,Y,Z Vertex 1 {m}
  4.5732, 28.7006, 3.9624,                !- X,Y,Z Vertex 2 {m}
  4.5732, 4.5732, 3.9624,                 !- X,Y,Z Vertex 3 {m}
  4.5732, 4.5732, 6.7056;                 !- X,Y,Z Vertex 4 {m}

ZoneControl:Thermostat,
  ALL_ST=Office open plan_FL=Building Story 2_SCH=A Thermostat, !- Name
  ALL_ST=Office open plan_FL=Building Story 2_SCH=A, !- Zone or ZoneList Name
  ALL_ST=Office open plan_FL=Building Story 2_SCH=A Thermostat Schedule, !- Control Type Schedule Name
  ThermostatSetpoint:DualSetpoint,        !- Control 1 Object Type
  Space Function Office open plan Thermostat 31, !- Control 1 Name
  ,                                       !- Control 2 Object Type
  ,                                       !- Control 2 Name
  ,                                       !- Control 3 Object Type
  ,                                       !- Control 3 Name
  ,                                       !- Control 4 Object Type
  ,                                       !- Control 4 Name
  0;                                      !- Temperature Difference Between Cutout And Setpoint {deltaC}

Schedule:Compact,
  ALL_ST=Office open plan_FL=Building Story 2_SCH=A Thermostat Schedule, !- Name
  ALL_ST=Office open plan_FL=Building Story 2_SCH=A Thermostat Schedule Type Limits, !- Schedule Type Limits Name
  Through: 12/31,                         !- Field 1
  For: AllDays,                           !- Field 2
  Until: 24:00,                           !- Field 3
  4;                                      !- Field 4

ScheduleTypeLimits,
  ALL_ST=Office open plan_FL=Building Story 2_SCH=A Thermostat Schedule Type Limits, !- Name
  0,                                      !- Lower Limit Value {BasedOnField A3}
  4,                                      !- Upper Limit Value {BasedOnField A3}
  DISCRETE;                               !- Numeric Type

ThermostatSetpoint:DualSetpoint,
  Space Function Office open plan Thermostat 31, !- Name
  NECB-A-Thermostat Setpoint-Heating,     !- Heating Setpoint Temperature Schedule Name
  NECB-A-Thermostat Setpoint-Cooling;     !- Cooling Setpoint Temperature Schedule Name

ZoneHVAC:EquipmentConnections,
  ALL_ST=Office open plan_FL=Building Story 2_SCH=A, !- Zone Name
  ALL_ST=Office open plan_FL=Building Story 2_SCH=A Equipment List, !- Zone Conditioning Equipment List Name
  ALL_ST=Office open plan_FL=Building Story 2_SCH=A Inlet Node List, !- Zone Air Inlet Node or NodeList Name
  ,                                       !- Zone Air Exhaust Node or NodeList Name
  ALL_ST=Office open plan_FL=Building Story 2_SCH=A Zone Air Node, !- Zone Air Node Name
  ALL_ST=Office open plan_FL=Building Story 2_SCH=A Return Node List; !- Zone Return Air Node or NodeList Name

NodeList,
  ALL_ST=Office open plan_FL=Building Story 2_SCH=A Inlet Node List, !- Name
  Air Terminal Single Duct VAV Reheat 6 Outlet Air Node; !- Node Name 1

NodeList,
  ALL_ST=Office open plan_FL=Building Story 2_SCH=A Return Node List, !- Name
  ALL_ST=Office open plan_FL=Building Story 2_SCH=A Return Air Node; !- Node Name 1

ZoneHVAC:AirDistributionUnit,
  ADU Air Terminal Single Duct VAV Reheat 6, !- Name
  Air Terminal Single Duct VAV Reheat 6 Outlet Air Node, !- Air Distribution Unit Outlet Node Name
  AirTerminal:SingleDuct:VAV:Reheat,      !- Air Terminal Object Type
  Air Terminal Single Duct VAV Reheat 6;  !- Air Terminal Name

AirTerminal:SingleDuct:VAV:Reheat,
  Air Terminal Single Duct VAV Reheat 6,  !- Name
  Always On Discrete,                     !- Availability Schedule Name
  Air Terminal Single Duct VAV Reheat 6 Damper Outlet, !- Damper Air Outlet Node Name
  Air Terminal Single Duct VAV Reheat 6 Inlet Air Node, !- Air Inlet Node Name
  Autosize,                               !- Maximum Air Flow Rate {m3/s}
  Constant,                               !- Zone Minimum Air Flow Input Method
  0.3,                                    !- Constant Minimum Air Flow Fraction
  0,                                      !- Fixed Minimum Air Flow Rate {m3/s}
  ,                                       !- Minimum Air Flow Fraction Schedule Name
  Coil:Heating:Electric,                  !- Reheat Coil Object Type
  Coil Heating Electric 6,                !- Reheat Coil Name
  Autosize,                               !- Maximum Hot Water or Steam Flow Rate {m3/s}
  0,                                      !- Minimum Hot Water or Steam Flow Rate {m3/s}
  Air Terminal Single Duct VAV Reheat 6 Outlet Air Node, !- Air Outlet Node Name
  0.001,                                  !- Convergence Tolerance
  Normal,                                 !- Damper Heating Action
  Autocalculate,                          !- Maximum Flow per Zone Floor Area During Reheat {m3/s-m2}
  0.5,                                    !- Maximum Flow Fraction During Reheat
  43;                                     !- Maximum Reheat Air Temperature {C}

Coil:Heating:Electric,
  Coil Heating Electric 6,                !- Name
  Always On Discrete,                     !- Availability Schedule Name
  1,                                      !- Efficiency
  14920.703458786,                        !- Nominal Capacity {W}
  Air Terminal Single Duct VAV Reheat 6 Damper Outlet, !- Air Inlet Node Name
  Air Terminal Single Duct VAV Reheat 6 Outlet Air Node; !- Air Outlet Node Name

ZoneHVAC:Baseboard:Convective:Electric,
  ZoneHVACBaseboardConvectiveElectric 5,  !- Name
  Always On Discrete,                     !- Availability Schedule Name
  ,                                       !- Heating Design Capacity Method
  Autosize,                               !- Heating Design Capacity {W}
  ,                                       !- Heating Design Capacity Per Floor Area {W/m2}
  ,                                       !- Fraction of Autosized Heating Design Capacity
  1;                                      !- Efficiency

ZoneHVAC:EquipmentList,
  ALL_ST=Office open plan_FL=Building Story 2_SCH=A Equipment List, !- Name
  SequentialLoad,                         !- Load Distribution Scheme
  ZoneHVAC:AirDistributionUnit,           !- Zone Equipment Object Type 1
  ADU Air Terminal Single Duct VAV Reheat 6, !- Zone Equipment Name 1
  1,                                      !- Zone Equipment Cooling Sequence 1
  1,                                      !- Zone Equipment Heating or No-Load Sequence 1
  ,                                       !- Zone Equipment Sequential Cooling Fraction Schedule Name 1
  ,                                       !- Zone Equipment Sequential Heating Fraction Schedule Name 1
  ZoneHVAC:Baseboard:Convective:Electric, !- Zone Equipment Object Type 2
  ZoneHVACBaseboardConvectiveElectric 5,  !- Zone Equipment Name 2
  2,                                      !- Zone Equipment Cooling Sequence 2
  2,                                      !- Zone Equipment Heating or No-Load Sequence 2
  ,                                       !- Zone Equipment Sequential Cooling Fraction Schedule Name 2
  ;                                       !- Zone Equipment Sequential Heating Fraction Schedule Name 2

Sizing:Zone,
  ALL_ST=Office open plan_FL=Building Story 2_SCH=A, !- Zone or ZoneList Name
  TemperatureDifference,                  !- Zone Cooling Design Supply Air Temperature Input Method
  13,                                     !- Zone Cooling Design Supply Air Temperature {C}
  11,                                     !- Zone Cooling Design Supply Air Temperature Difference {deltaC}
  TemperatureDifference,                  !- Zone Heating Design Supply Air Temperature Input Method
  43,                                     !- Zone Heating Design Supply Air Temperature {C}
  21,                                     !- Zone Heating Design Supply Air Temperature Difference {deltaC}
  0.0085,                                 !- Zone Cooling Design Supply Air Humidity Ratio {kgWater/kgDryAir}
  0.008,                                  !- Zone Heating Design Supply Air Humidity Ratio {kgWater/kgDryAir}
  ALL_ST=Office open plan_FL=Building Story 2_SCH=A DSOA Space List, !- Design Specification Outdoor Air Object Name
  1.3,                                    !- Zone Heating Sizing Factor
  1.1,                                    !- Zone Cooling Sizing Factor
  DesignDay,                              !- Cooling Design Air Flow Method
  0,                                      !- Cooling Design Air Flow Rate {m3/s}
  0.000762,                               !- Cooling Minimum Air Flow per Zone Floor Area {m3/s-m2}
  0,                                      !- Cooling Minimum Air Flow {m3/s}
  0,                                      !- Cooling Minimum Air Flow Fraction
  DesignDay,                              !- Heating Design Air Flow Method
  0,                                      !- Heating Design Air Flow Rate {m3/s}
  0.002032,                               !- Heating Maximum Air Flow per Zone Floor Area {m3/s-m2}
  0.1415762,                              !- Heating Maximum Air Flow {m3/s}
  0.3,                                    !- Heating Maximum Air Flow Fraction
  ,                                       !- Design Specification Zone Air Distribution Object Name
  No,                                     !- Account for Dedicated Outdoor Air System
  ,                                       !- Dedicated Outdoor Air System Control Strategy
  ,                                       !- Dedicated Outdoor Air Low Setpoint Temperature for Design {C}
  ,                                       !- Dedicated Outdoor Air High Setpoint Temperature for Design {C}
  Sensible Load Only No Latent Load,      !- Zone Load Sizing Method
  HumidityRatioDifference,                !- Zone Latent Cooling Design Supply Air Humidity Ratio Input Method
  ,                                       !- Zone Dehumidification Design Supply Air Humidity Ratio {kgWater/kgDryAir}
  0.005,                                  !- Zone Cooling Design Supply Air Humidity Ratio Difference {kgWater/kgDryAir}
  HumidityRatioDifference,                !- Zone Latent Heating Design Supply Air Humidity Ratio Input Method
  ,                                       !- Zone Humidification Design Supply Air Humidity Ratio {kgWater/kgDryAir}
  0.005,                                  !- Zone Humidification Design Supply Air Humidity Ratio Difference {kgWater/kgDryAir}
  ,                                       !- Zone Humidistat Dehumidification Set Point Schedule Name
  ,                                       !- Zone Humidistat Humidification Set Point Schedule Name
  Coincident;                             !- Type of Space Sum to Use

Schedule:Day:Interval,
  Schedule Day 10,                        !- Name
  Fractional,                             !- Schedule Type Limits Name
  No,                                     !- Interpolate to Timestep
  24:00,                                  !- Time 1 {hh:mm}
  0;                                      !- Value Until Time 1

Schedule:Day:Interval,
  sys_6|mixed|shr>none|sc>ccashp|sh>ccashp|ssf>vv|zh>b-e|zc>none|srf>vv| 1 Occ Sch Default, !- Name
  Fractional,                             !- Schedule Type Limits Name
  No,                                     !- Interpolate to Timestep
  08:00,                                  !- Time 1 {hh:mm}
  0,                                      !- Value Until Time 1
  19:00,                                  !- Time 2 {hh:mm}
  1,                                      !- Value Until Time 2
  24:00,                                  !- Time 3 {hh:mm}
  0;                                      !- Value Until Time 3

Schedule:Day:Interval,
  Schedule Day 9,                         !- Name
  Fractional,                             !- Schedule Type Limits Name
  No,                                     !- Interpolate to Timestep
  24:00,                                  !- Time 1 {hh:mm}
  0;                                      !- Value Until Time 1

Schedule:Week:Daily,
  sys_6|mixed|shr>none|sc>ccashp|sh>ccashp|ssf>vv|zh>b-e|zc>none|srf>vv| 1 Occ Sch Week Rule - Jan1-Dec31, !- Name
  Schedule Day 10,                        !- Sunday Schedule:Day Name
  sys_6|mixed|shr>none|sc>ccashp|sh>ccashp|ssf>vv|zh>b-e|zc>none|srf>vv| 1 Occ Sch Default, !- Monday Schedule:Day Name
  sys_6|mixed|shr>none|sc>ccashp|sh>ccashp|ssf>vv|zh>b-e|zc>none|srf>vv| 1 Occ Sch Default, !- Tuesday Schedule:Day Name
  sys_6|mixed|shr>none|sc>ccashp|sh>ccashp|ssf>vv|zh>b-e|zc>none|srf>vv| 1 Occ Sch Default, !- Wednesday Schedule:Day Name
  sys_6|mixed|shr>none|sc>ccashp|sh>ccashp|ssf>vv|zh>b-e|zc>none|srf>vv| 1 Occ Sch Default, !- Thursday Schedule:Day Name
  sys_6|mixed|shr>none|sc>ccashp|sh>ccashp|ssf>vv|zh>b-e|zc>none|srf>vv| 1 Occ Sch Default, !- Friday Schedule:Day Name
  Schedule Day 9,                         !- Saturday Schedule:Day Name
  sys_6|mixed|shr>none|sc>ccashp|sh>ccashp|ssf>vv|zh>b-e|zc>none|srf>vv| 1 Occ Sch Default, !- Holiday Schedule:Day Name
  sys_6|mixed|shr>none|sc>ccashp|sh>ccashp|ssf>vv|zh>b-e|zc>none|srf>vv| 1 Occ Sch Summer Design Day, !- SummerDesignDay Schedule:Day Name
  sys_6|mixed|shr>none|sc>ccashp|sh>ccashp|ssf>vv|zh>b-e|zc>none|srf>vv| 1 Occ Sch Winter Design Day, !- WinterDesignDay Schedule:Day Name
  sys_6|mixed|shr>none|sc>ccashp|sh>ccashp|ssf>vv|zh>b-e|zc>none|srf>vv| 1 Occ Sch Default, !- CustomDay1 Schedule:Day Name
  sys_6|mixed|shr>none|sc>ccashp|sh>ccashp|ssf>vv|zh>b-e|zc>none|srf>vv| 1 Occ Sch Default; !- CustomDay2 Schedule:Day Name

Schedule:Year,
  sys_6|mixed|shr>none|sc>ccashp|sh>ccashp|ssf>vv|zh>b-e|zc>none|srf>vv| 1 Occ Sch, !- Name
  Fractional,                             !- Schedule Type Limits Name
  sys_6|mixed|shr>none|sc>ccashp|sh>ccashp|ssf>vv|zh>b-e|zc>none|srf>vv| 1 Occ Sch Week Rule - Jan1-Dec31, !- Schedule:Week Name 1
  1,                                      !- Start Month 1
  1,                                      !- Start Day 1
  12,                                     !- End Month 1
  31;                                     !- End Day 1

Schedule:Day:Interval,
  sys_6|mixed|shr>none|sc>ccashp|sh>ccashp|ssf>vv|zh>b-e|zc>none|srf>vv| 1 Occ Sch Summer Design Day, !- Name
  Fractional,                             !- Schedule Type Limits Name
  No,                                     !- Interpolate to Timestep
  24:00,                                  !- Time 1 {hh:mm}
  1;                                      !- Value Until Time 1

Schedule:Day:Interval,
  sys_6|mixed|shr>none|sc>ccashp|sh>ccashp|ssf>vv|zh>b-e|zc>none|srf>vv| 1 Occ Sch Winter Design Day, !- Name
  Fractional,                             !- Schedule Type Limits Name
  No,                                     !- Interpolate to Timestep
  24:00,                                  !- Time 1 {hh:mm}
  1;                                      !- Value Until Time 1

Controller:MechanicalVentilation,
  Controller Mechanical Ventilation 2,    !- Name
  sys_6|mixed|shr>none|sc>ccashp|sh>ccashp|ssf>vv|zh>b-e|zc>none|srf>vv| 1 Occ Sch, !- Availability Schedule Name
  No,                                     !- Demand Controlled Ventilation
  ZoneSum,                                !- System Outdoor Air Method
  ,                                       !- Zone Maximum Outdoor Air Fraction {dimensionless}
  ALL_ST=Office open plan_FL=Building Story 2_SCH=A, !- Zone or ZoneList Name 1
  Space Function Office open plan Ventilation, !- Design Specification Outdoor Air Object Name 1
  ,                                       !- Design Specification Zone Air Distribution Object Name 1
  ALL_ST=Office open plan_FL=Building Story 2_SCH=A 1, !- Zone or ZoneList Name 2
  Space Function Office open plan Ventilation, !- Design Specification Outdoor Air Object Name 2
  ,                                       !- Design Specification Zone Air Distribution Object Name 2
  ALL_ST=Office open plan_FL=Building Story 2_SCH=A 2, !- Zone or ZoneList Name 3
  Space Function Office open plan Ventilation, !- Design Specification Outdoor Air Object Name 3
  ,                                       !- Design Specification Zone Air Distribution Object Name 3
  ALL_ST=Office open plan_FL=Building Story 2_SCH=A 3, !- Zone or ZoneList Name 4
  Space Function Office open plan Ventilation, !- Design Specification Outdoor Air Object Name 4
  ,                                       !- Design Specification Zone Air Distribution Object Name 4
  ALL_ST=Office open plan_FL=Building Story 2_SCH=A 4, !- Zone or ZoneList Name 5
  Space Function Office open plan Ventilation, !- Design Specification Outdoor Air Object Name 5
  ;                                       !- Design Specification Zone Air Distribution Object Name 5

DesignSpecification:OutdoorAir:SpaceList,
  ALL_ST=Office open plan_FL=Building Story 2_SCH=A DSOA Space List, !- Name
  Core_mid,                               !- Space Name 1
  Space Function Office open plan Ventilation; !- Space Design Specification Outdoor Air Object Name 1

Zone,
  ALL_ST=Office open plan_FL=Building Story 2_SCH=A 1, !- Name
  0,                                      !- Direction of Relative North {deg}
  0,                                      !- X Origin {m}
  0,                                      !- Y Origin {m}
  0,                                      !- Z Origin {m}
  ,                                       !- Type
  1,                                      !- Multiplier
  ,                                       !- Ceiling Height {m}
  ,                                       !- Volume {m3}
  ,                                       !- Floor Area {m2}
  ,                                       !- Zone Inside Convection Algorithm
  ,                                       !- Zone Outside Convection Algorithm
  Yes;                                    !- Part of Total Floor Area

Space,
  Perimeter_mid_ZN_4,                     !- Name
  ALL_ST=Office open plan_FL=Building Story 2_SCH=A 1, !- Zone Name
  ,                                       !- Ceiling Height {m}
  360.054831409344,                       !- Volume {m3}
  ,                                       !- Floor Area {m2}
  Space Function Office open plan;        !- Space Type

BuildingSurface:Detailed,
  Perimeter_mid_ZN_4_Ceiling,             !- Name
  Ceiling,                                !- Surface Type
  BTAP-Int-Ceiling,                       !- Construction Name
  ALL_ST=Office open plan_FL=Building Story 2_SCH=A 1, !- Zone Name
  Perimeter_mid_ZN_4,                     !- Space Name
  Surface,                                !- Outside Boundary Condition
  MidFloor_Plenum_Floor_4,                !- Outside Boundary Condition Object
  NoSun,                                  !- Sun Exposure
  NoWind,                                 !- Wind Exposure
  ,                                       !- View Factor to Ground
  ,                                       !- Number of Vertices
  0, 0, 6.7056,                           !- X,Y,Z Vertex 1 {m}
  4.5732, 4.5732, 6.7056,                 !- X,Y,Z Vertex 2 {m}
  4.5732, 28.7006, 6.7056,                !- X,Y,Z Vertex 3 {m}
  0, 33.2738, 6.7056;                     !- X,Y,Z Vertex 4 {m}

BuildingSurface:Detailed,
  Perimeter_mid_ZN_4_Floor,               !- Name
  Floor,                                  !- Surface Type
  BTAP-Int-Floor,                         !- Construction Name
  ALL_ST=Office open plan_FL=Building Story 2_SCH=A 1, !- Zone Name
  Perimeter_mid_ZN_4,                     !- Space Name
  Surface,                                !- Outside Boundary Condition
  FirstFloor_Plenum_Ceiling_4,            !- Outside Boundary Condition Object
  NoSun,                                  !- Sun Exposure
  NoWind,                                 !- Wind Exposure
  ,                                       !- View Factor to Ground
  ,                                       !- Number of Vertices
  0, 33.2738, 3.9624,                     !- X,Y,Z Vertex 1 {m}
  4.5732, 28.7006, 3.9624,                !- X,Y,Z Vertex 2 {m}
  4.5732, 4.5732, 3.9624,                 !- X,Y,Z Vertex 3 {m}
  0, 0, 3.9624;                           !- X,Y,Z Vertex 4 {m}

BuildingSurface:Detailed,
  Perimeter_mid_ZN_4_Wall_East,           !- Name
  Wall,                                   !- Surface Type
  BTAP-Int-Wall,                          !- Construction Name
  ALL_ST=Office open plan_FL=Building Story 2_SCH=A 1, !- Zone Name
  Perimeter_mid_ZN_4,                     !- Space Name
  Surface,                                !- Outside Boundary Condition
  Core_mid_ZN_5_Wall_West,                !- Outside Boundary Condition Object
  NoSun,                                  !- Sun Exposure
  NoWind,                                 !- Wind Exposure
  ,                                       !- View Factor to Ground
  ,                                       !- Number of Vertices
  4.5732, 4.5732, 6.7056,                 !- X,Y,Z Vertex 1 {m}
  4.5732, 4.5732, 3.9624,                 !- X,Y,Z Vertex 2 {m}
  4.5732, 28.7006, 3.9624,                !- X,Y,Z Vertex 3 {m}
  4.5732, 28.7006, 6.7056;                !- X,Y,Z Vertex 4 {m}

BuildingSurface:Detailed,
  Perimeter_mid_ZN_4_Wall_North,          !- Name
  Wall,                                   !- Surface Type
  BTAP-Int-Wall,                          !- Construction Name
  ALL_ST=Office open plan_FL=Building Story 2_SCH=A 1, !- Zone Name
  Perimeter_mid_ZN_4,                     !- Space Name
  Surface,                                !- Outside Boundary Condition
  Perimeter_mid_ZN_3_Wall_West,           !- Outside Boundary Condition Object
  NoSun,                                  !- Sun Exposure
  NoWind,                                 !- Wind Exposure
  ,                                       !- View Factor to Ground
  ,                                       !- Number of Vertices
  4.5732, 28.7006, 6.7056,                !- X,Y,Z Vertex 1 {m}
  4.5732, 28.7006, 3.9624,                !- X,Y,Z Vertex 2 {m}
  0, 33.2738, 3.9624,                     !- X,Y,Z Vertex 3 {m}
  0, 33.2738, 6.7056;                     !- X,Y,Z Vertex 4 {m}

BuildingSurface:Detailed,
  Perimeter_mid_ZN_4_Wall_South,          !- Name
  Wall,                                   !- Surface Type
  BTAP-Int-Wall,                          !- Construction Name
  ALL_ST=Office open plan_FL=Building Story 2_SCH=A 1, !- Zone Name
  Perimeter_mid_ZN_4,                     !- Space Name
  Surface,                                !- Outside Boundary Condition
  Perimeter_mid_ZN_1_Wall_West,           !- Outside Boundary Condition Object
  NoSun,                                  !- Sun Exposure
  NoWind,                                 !- Wind Exposure
  ,                                       !- View Factor to Ground
  ,                                       !- Number of Vertices
  0, 0, 6.7056,                           !- X,Y,Z Vertex 1 {m}
  0, 0, 3.9624,                           !- X,Y,Z Vertex 2 {m}
  4.5732, 4.5732, 3.9624,                 !- X,Y,Z Vertex 3 {m}
  4.5732, 4.5732, 6.7056;                 !- X,Y,Z Vertex 4 {m}

BuildingSurface:Detailed,
  Perimeter_mid_ZN_4_Wall_West,           !- Name
  Wall,                                   !- Surface Type
  BTAP-Ext-Wall-Mass:U-0.29,              !- Construction Name
  ALL_ST=Office open plan_FL=Building Story 2_SCH=A 1, !- Zone Name
  Perimeter_mid_ZN_4,                     !- Space Name
  Outdoors,                               !- Outside Boundary Condition
  ,                                       !- Outside Boundary Condition Object
  SunExposed,                             !- Sun Exposure
  WindExposed,                            !- Wind Exposure
  ,                                       !- View Factor to Ground
  ,                                       !- Number of Vertices
  0, 33.2738, 6.7056,                     !- X,Y,Z Vertex 1 {m}
  0, 33.2738, 3.9624,                     !- X,Y,Z Vertex 2 {m}
  0, 0, 3.9624,                           !- X,Y,Z Vertex 3 {m}
  0, 0, 6.7056;                           !- X,Y,Z Vertex 4 {m}

FenestrationSurface:Detailed,
  Perimeter_mid_ZN_4_Wall_West_FixedWindow, !- Name
  Window,                                 !- Surface Type
  BTAP-Ext-FixedWindow:U=0.280 SHGC=0.600, !- Construction Name
  Perimeter_mid_ZN_4_Wall_West,           !- Building Surface Name
  ,                                       !- Outside Boundary Condition Object
  ,                                       !- View Factor to Ground
  ,                                       !- Frame and Divider Name
  ,                                       !- Multiplier
  ,                                       !- Number of Vertices
  0, 33.2484, 6.04589676443909,           !- X,Y,Z Vertex 1 {m}
  0, 33.2484, 4.7244,                     !- X,Y,Z Vertex 2 {m}
  0, 0.0254000000000048, 4.7244,          !- X,Y,Z Vertex 3 {m}
  0, 0.0254000000000048, 6.04589676443909; !- X,Y,Z Vertex 4 {m}

ZoneInfiltration:DesignFlowRate,
  Perimeter_mid_ZN_4 Infiltration,        !- Name
  Perimeter_mid_ZN_4,                     !- Zone or ZoneList or Space or SpaceList Name
  Always On Discrete,                     !- Schedule Name
  Flow/ExteriorArea,                      !- Design Flow Rate Calculation Method
  ,                                       !- Design Flow Rate {m3/s}
  ,                                       !- Flow Rate per Floor Area {m3/s-m2}
  0.00471177345157376,                    !- Flow Rate per Exterior Surface Area {m3/s-m2}
  ,                                       !- Air Changes per Hour {1/hr}
  0,                                      !- Constant Term Coefficient
  0,                                      !- Temperature Term Coefficient
  0.224,                                  !- Velocity Term Coefficient
  0;                                      !- Velocity Squared Term Coefficient

ZoneControl:Thermostat,
  ALL_ST=Office open plan_FL=Building Story 2_SCH=A 1 Thermostat, !- Name
  ALL_ST=Office open plan_FL=Building Story 2_SCH=A 1, !- Zone or ZoneList Name
  ALL_ST=Office open plan_FL=Building Story 2_SCH=A 1 Thermostat Schedule, !- Control Type Schedule Name
  ThermostatSetpoint:DualSetpoint,        !- Control 1 Object Type
  Space Function Office open plan Thermostat 35, !- Control 1 Name
  ,                                       !- Control 2 Object Type
  ,                                       !- Control 2 Name
  ,                                       !- Control 3 Object Type
  ,                                       !- Control 3 Name
  ,                                       !- Control 4 Object Type
  ,                                       !- Control 4 Name
  0;                                      !- Temperature Difference Between Cutout And Setpoint {deltaC}

Schedule:Compact,
  ALL_ST=Office open plan_FL=Building Story 2_SCH=A 1 Thermostat Schedule, !- Name
  ALL_ST=Office open plan_FL=Building Story 2_SCH=A 1 Thermostat Schedule Type Limits, !- Schedule Type Limits Name
  Through: 12/31,                         !- Field 1
  For: AllDays,                           !- Field 2
  Until: 24:00,                           !- Field 3
  4;                                      !- Field 4

ScheduleTypeLimits,
  ALL_ST=Office open plan_FL=Building Story 2_SCH=A 1 Thermostat Schedule Type Limits, !- Name
  0,                                      !- Lower Limit Value {BasedOnField A3}
  4,                                      !- Upper Limit Value {BasedOnField A3}
  DISCRETE;                               !- Numeric Type

ThermostatSetpoint:DualSetpoint,
  Space Function Office open plan Thermostat 35, !- Name
  NECB-A-Thermostat Setpoint-Heating,     !- Heating Setpoint Temperature Schedule Name
  NECB-A-Thermostat Setpoint-Cooling;     !- Cooling Setpoint Temperature Schedule Name

ZoneHVAC:EquipmentConnections,
  ALL_ST=Office open plan_FL=Building Story 2_SCH=A 1, !- Zone Name
  ALL_ST=Office open plan_FL=Building Story 2_SCH=A 1 Equipment List, !- Zone Conditioning Equipment List Name
  ALL_ST=Office open plan_FL=Building Story 2_SCH=A 1 Inlet Node List, !- Zone Air Inlet Node or NodeList Name
  ,                                       !- Zone Air Exhaust Node or NodeList Name
  ALL_ST=Office open plan_FL=Building Story 2_SCH=A 1 Zone Air Node, !- Zone Air Node Name
  ALL_ST=Office open plan_FL=Building Story 2_SCH=A 1 Return Node List; !- Zone Return Air Node or NodeList Name

NodeList,
  ALL_ST=Office open plan_FL=Building Story 2_SCH=A 1 Inlet Node List, !- Name
  Air Terminal Single Duct VAV Reheat 7 Outlet Air Node; !- Node Name 1

NodeList,
  ALL_ST=Office open plan_FL=Building Story 2_SCH=A 1 Return Node List, !- Name
  ALL_ST=Office open plan_FL=Building Story 2_SCH=A 1 Return Air Node; !- Node Name 1

ZoneHVAC:AirDistributionUnit,
  ADU Air Terminal Single Duct VAV Reheat 7, !- Name
  Air Terminal Single Duct VAV Reheat 7 Outlet Air Node, !- Air Distribution Unit Outlet Node Name
  AirTerminal:SingleDuct:VAV:Reheat,      !- Air Terminal Object Type
  Air Terminal Single Duct VAV Reheat 7;  !- Air Terminal Name

AirTerminal:SingleDuct:VAV:Reheat,
  Air Terminal Single Duct VAV Reheat 7,  !- Name
  Always On Discrete,                     !- Availability Schedule Name
  Air Terminal Single Duct VAV Reheat 7 Damper Outlet, !- Damper Air Outlet Node Name
  Air Terminal Single Duct VAV Reheat 7 Inlet Air Node, !- Air Inlet Node Name
  Autosize,                               !- Maximum Air Flow Rate {m3/s}
  Constant,                               !- Zone Minimum Air Flow Input Method
  0.3,                                    !- Constant Minimum Air Flow Fraction
  0,                                      !- Fixed Minimum Air Flow Rate {m3/s}
  ,                                       !- Minimum Air Flow Fraction Schedule Name
  Coil:Heating:Electric,                  !- Reheat Coil Object Type
  Coil Heating Electric 7,                !- Reheat Coil Name
  Autosize,                               !- Maximum Hot Water or Steam Flow Rate {m3/s}
  0,                                      !- Minimum Hot Water or Steam Flow Rate {m3/s}
  Air Terminal Single Duct VAV Reheat 7 Outlet Air Node, !- Air Outlet Node Name
  0.001,                                  !- Convergence Tolerance
  Normal,                                 !- Damper Heating Action
  Autocalculate,                          !- Maximum Flow per Zone Floor Area During Reheat {m3/s-m2}
  0.5,                                    !- Maximum Flow Fraction During Reheat
  43;                                     !- Maximum Reheat Air Temperature {C}

Coil:Heating:Electric,
  Coil Heating Electric 7,                !- Name
  Always On Discrete,                     !- Availability Schedule Name
  1,                                      !- Efficiency
  11482.1286678314,                       !- Nominal Capacity {W}
  Air Terminal Single Duct VAV Reheat 7 Damper Outlet, !- Air Inlet Node Name
  Air Terminal Single Duct VAV Reheat 7 Outlet Air Node; !- Air Outlet Node Name

ZoneHVAC:Baseboard:Convective:Electric,
  ZoneHVACBaseboardConvectiveElectric 6,  !- Name
  Always On Discrete,                     !- Availability Schedule Name
  ,                                       !- Heating Design Capacity Method
  Autosize,                               !- Heating Design Capacity {W}
  ,                                       !- Heating Design Capacity Per Floor Area {W/m2}
  ,                                       !- Fraction of Autosized Heating Design Capacity
  1;                                      !- Efficiency

ZoneHVAC:EquipmentList,
  ALL_ST=Office open plan_FL=Building Story 2_SCH=A 1 Equipment List, !- Name
  SequentialLoad,                         !- Load Distribution Scheme
  ZoneHVAC:AirDistributionUnit,           !- Zone Equipment Object Type 1
  ADU Air Terminal Single Duct VAV Reheat 7, !- Zone Equipment Name 1
  1,                                      !- Zone Equipment Cooling Sequence 1
  1,                                      !- Zone Equipment Heating or No-Load Sequence 1
  ,                                       !- Zone Equipment Sequential Cooling Fraction Schedule Name 1
  ,                                       !- Zone Equipment Sequential Heating Fraction Schedule Name 1
  ZoneHVAC:Baseboard:Convective:Electric, !- Zone Equipment Object Type 2
  ZoneHVACBaseboardConvectiveElectric 6,  !- Zone Equipment Name 2
  2,                                      !- Zone Equipment Cooling Sequence 2
  2,                                      !- Zone Equipment Heating or No-Load Sequence 2
  ,                                       !- Zone Equipment Sequential Cooling Fraction Schedule Name 2
  ;                                       !- Zone Equipment Sequential Heating Fraction Schedule Name 2

Sizing:Zone,
  ALL_ST=Office open plan_FL=Building Story 2_SCH=A 1, !- Zone or ZoneList Name
  TemperatureDifference,                  !- Zone Cooling Design Supply Air Temperature Input Method
  13,                                     !- Zone Cooling Design Supply Air Temperature {C}
  11,                                     !- Zone Cooling Design Supply Air Temperature Difference {deltaC}
  TemperatureDifference,                  !- Zone Heating Design Supply Air Temperature Input Method
  43,                                     !- Zone Heating Design Supply Air Temperature {C}
  21,                                     !- Zone Heating Design Supply Air Temperature Difference {deltaC}
  0.0085,                                 !- Zone Cooling Design Supply Air Humidity Ratio {kgWater/kgDryAir}
  0.008,                                  !- Zone Heating Design Supply Air Humidity Ratio {kgWater/kgDryAir}
  ALL_ST=Office open plan_FL=Building Story 2_SCH=A 1 DSOA Space List, !- Design Specification Outdoor Air Object Name
  1.3,                                    !- Zone Heating Sizing Factor
  1.1,                                    !- Zone Cooling Sizing Factor
  DesignDay,                              !- Cooling Design Air Flow Method
  0,                                      !- Cooling Design Air Flow Rate {m3/s}
  0.000762,                               !- Cooling Minimum Air Flow per Zone Floor Area {m3/s-m2}
  0,                                      !- Cooling Minimum Air Flow {m3/s}
  0,                                      !- Cooling Minimum Air Flow Fraction
  DesignDay,                              !- Heating Design Air Flow Method
  0,                                      !- Heating Design Air Flow Rate {m3/s}
  0.002032,                               !- Heating Maximum Air Flow per Zone Floor Area {m3/s-m2}
  0.1415762,                              !- Heating Maximum Air Flow {m3/s}
  0.3,                                    !- Heating Maximum Air Flow Fraction
  ,                                       !- Design Specification Zone Air Distribution Object Name
  No,                                     !- Account for Dedicated Outdoor Air System
  ,                                       !- Dedicated Outdoor Air System Control Strategy
  ,                                       !- Dedicated Outdoor Air Low Setpoint Temperature for Design {C}
  ,                                       !- Dedicated Outdoor Air High Setpoint Temperature for Design {C}
  Sensible Load Only No Latent Load,      !- Zone Load Sizing Method
  HumidityRatioDifference,                !- Zone Latent Cooling Design Supply Air Humidity Ratio Input Method
  ,                                       !- Zone Dehumidification Design Supply Air Humidity Ratio {kgWater/kgDryAir}
  0.005,                                  !- Zone Cooling Design Supply Air Humidity Ratio Difference {kgWater/kgDryAir}
  HumidityRatioDifference,                !- Zone Latent Heating Design Supply Air Humidity Ratio Input Method
  ,                                       !- Zone Humidification Design Supply Air Humidity Ratio {kgWater/kgDryAir}
  0.005,                                  !- Zone Humidification Design Supply Air Humidity Ratio Difference {kgWater/kgDryAir}
  ,                                       !- Zone Humidistat Dehumidification Set Point Schedule Name
  ,                                       !- Zone Humidistat Humidification Set Point Schedule Name
  Coincident;                             !- Type of Space Sum to Use

DesignSpecification:OutdoorAir:SpaceList,
  ALL_ST=Office open plan_FL=Building Story 2_SCH=A 1 DSOA Space List, !- Name
  Perimeter_mid_ZN_4,                     !- Space Name 1
  Space Function Office open plan Ventilation; !- Space Design Specification Outdoor Air Object Name 1

Zone,
  ALL_ST=Office open plan_FL=Building Story 2_SCH=A 2, !- Name
  0,                                      !- Direction of Relative North {deg}
  0,                                      !- X Origin {m}
  0,                                      !- Y Origin {m}
  0,                                      !- Z Origin {m}
  ,                                       !- Type
  1,                                      !- Multiplier
  ,                                       !- Ceiling Height {m}
  ,                                       !- Volume {m3}
  ,                                       !- Floor Area {m2}
  ,                                       !- Zone Inside Convection Algorithm
  ,                                       !- Zone Outside Convection Algorithm
  Yes;                                    !- Part of Total Floor Area

Space,
  Perimeter_mid_ZN_3,                     !- Name
  ALL_ST=Office open plan_FL=Building Story 2_SCH=A 2, !- Zone Name
  ,                                       !- Ceiling Height {m}
  568.769988336336,                       !- Volume {m3}
  ,                                       !- Floor Area {m2}
  Space Function Office open plan;        !- Space Type

BuildingSurface:Detailed,
  Perimeter_mid_ZN_3_Ceiling,             !- Name
  Ceiling,                                !- Surface Type
  BTAP-Int-Ceiling,                       !- Construction Name
  ALL_ST=Office open plan_FL=Building Story 2_SCH=A 2, !- Zone Name
  Perimeter_mid_ZN_3,                     !- Space Name
  Surface,                                !- Outside Boundary Condition
  MidFloor_Plenum_Floor_3,                !- Outside Boundary Condition Object
  NoSun,                                  !- Sun Exposure
  NoWind,                                 !- Wind Exposure
  ,                                       !- View Factor to Ground
  ,                                       !- Number of Vertices
  45.3375, 28.7006, 6.7056,               !- X,Y,Z Vertex 1 {m}
  49.911, 33.2738, 6.7056,                !- X,Y,Z Vertex 2 {m}
  0, 33.2738, 6.7056,                     !- X,Y,Z Vertex 3 {m}
  4.5732, 28.7006, 6.7056;                !- X,Y,Z Vertex 4 {m}

BuildingSurface:Detailed,
  Perimeter_mid_ZN_3_Floor,               !- Name
  Floor,                                  !- Surface Type
  BTAP-Int-Floor,                         !- Construction Name
  ALL_ST=Office open plan_FL=Building Story 2_SCH=A 2, !- Zone Name
  Perimeter_mid_ZN_3,                     !- Space Name
  Surface,                                !- Outside Boundary Condition
  FirstFloor_Plenum_Ceiling_3,            !- Outside Boundary Condition Object
  NoSun,                                  !- Sun Exposure
  NoWind,                                 !- Wind Exposure
  ,                                       !- View Factor to Ground
  ,                                       !- Number of Vertices
  49.911, 33.2738, 3.9624,                !- X,Y,Z Vertex 1 {m}
  45.3375, 28.7006, 3.9624,               !- X,Y,Z Vertex 2 {m}
  4.5732, 28.7006, 3.9624,                !- X,Y,Z Vertex 3 {m}
  0, 33.2738, 3.9624;                     !- X,Y,Z Vertex 4 {m}

BuildingSurface:Detailed,
  Perimeter_mid_ZN_3_Wall_East,           !- Name
  Wall,                                   !- Surface Type
  BTAP-Int-Wall,                          !- Construction Name
  ALL_ST=Office open plan_FL=Building Story 2_SCH=A 2, !- Zone Name
  Perimeter_mid_ZN_3,                     !- Space Name
  Surface,                                !- Outside Boundary Condition
  Perimeter_mid_ZN_2_Wall_North,          !- Outside Boundary Condition Object
  NoSun,                                  !- Sun Exposure
  NoWind,                                 !- Wind Exposure
  ,                                       !- View Factor to Ground
  ,                                       !- Number of Vertices
  45.3375, 28.7006, 6.7056,               !- X,Y,Z Vertex 1 {m}
  45.3375, 28.7006, 3.9624,               !- X,Y,Z Vertex 2 {m}
  49.911, 33.2738, 3.9624,                !- X,Y,Z Vertex 3 {m}
  49.911, 33.2738, 6.7056;                !- X,Y,Z Vertex 4 {m}

BuildingSurface:Detailed,
  Perimeter_mid_ZN_3_Wall_North,          !- Name
  Wall,                                   !- Surface Type
  BTAP-Ext-Wall-Mass:U-0.29,              !- Construction Name
  ALL_ST=Office open plan_FL=Building Story 2_SCH=A 2, !- Zone Name
  Perimeter_mid_ZN_3,                     !- Space Name
  Outdoors,                               !- Outside Boundary Condition
  ,                                       !- Outside Boundary Condition Object
  SunExposed,                             !- Sun Exposure
  WindExposed,                            !- Wind Exposure
  ,                                       !- View Factor to Ground
  ,                                       !- Number of Vertices
  49.911, 33.2738, 6.7056,                !- X,Y,Z Vertex 1 {m}
  49.911, 33.2738, 3.9624,                !- X,Y,Z Vertex 2 {m}
  0, 33.2738, 3.9624,                     !- X,Y,Z Vertex 3 {m}
  0, 33.2738, 6.7056;                     !- X,Y,Z Vertex 4 {m}

FenestrationSurface:Detailed,
  Perimeter_mid_ZN_3_Wall_North_FixedWindow, !- Name
  Window,                                 !- Surface Type
  BTAP-Ext-FixedWindow:U=0.280 SHGC=0.600, !- Construction Name
  Perimeter_mid_ZN_3_Wall_North,          !- Building Surface Name
  ,                                       !- Outside Boundary Condition Object
  ,                                       !- View Factor to Ground
  ,                                       !- Frame and Divider Name
  ,                                       !- Multiplier
  ,                                       !- Number of Vertices
  49.8856, 33.2738, 6.04522354966887,     !- X,Y,Z Vertex 1 {m}
  49.8856, 33.2738, 4.7244,               !- X,Y,Z Vertex 2 {m}
  0.0254000000000048, 33.2738, 4.7244,    !- X,Y,Z Vertex 3 {m}
  0.0254000000000048, 33.2738, 6.04522354966887; !- X,Y,Z Vertex 4 {m}

BuildingSurface:Detailed,
  Perimeter_mid_ZN_3_Wall_South,          !- Name
  Wall,                                   !- Surface Type
  BTAP-Int-Wall,                          !- Construction Name
  ALL_ST=Office open plan_FL=Building Story 2_SCH=A 2, !- Zone Name
  Perimeter_mid_ZN_3,                     !- Space Name
  Surface,                                !- Outside Boundary Condition
  Core_mid_ZN_5_Wall_North,               !- Outside Boundary Condition Object
  NoSun,                                  !- Sun Exposure
  NoWind,                                 !- Wind Exposure
  ,                                       !- View Factor to Ground
  ,                                       !- Number of Vertices
  4.5732, 28.7006, 6.7056,                !- X,Y,Z Vertex 1 {m}
  4.5732, 28.7006, 3.9624,                !- X,Y,Z Vertex 2 {m}
  45.3375, 28.7006, 3.9624,               !- X,Y,Z Vertex 3 {m}
  45.3375, 28.7006, 6.7056;               !- X,Y,Z Vertex 4 {m}

BuildingSurface:Detailed,
  Perimeter_mid_ZN_3_Wall_West,           !- Name
  Wall,                                   !- Surface Type
  BTAP-Int-Wall,                          !- Construction Name
  ALL_ST=Office open plan_FL=Building Story 2_SCH=A 2, !- Zone Name
  Perimeter_mid_ZN_3,                     !- Space Name
  Surface,                                !- Outside Boundary Condition
  Perimeter_mid_ZN_4_Wall_North,          !- Outside Boundary Condition Object
  NoSun,                                  !- Sun Exposure
  NoWind,                                 !- Wind Exposure
  ,                                       !- View Factor to Ground
  ,                                       !- Number of Vertices
  0, 33.2738, 6.7056,                     !- X,Y,Z Vertex 1 {m}
  0, 33.2738, 3.9624,                     !- X,Y,Z Vertex 2 {m}
  4.5732, 28.7006, 3.9624,                !- X,Y,Z Vertex 3 {m}
  4.5732, 28.7006, 6.7056;                !- X,Y,Z Vertex 4 {m}

ZoneInfiltration:DesignFlowRate,
  Perimeter_mid_ZN_3 Infiltration,        !- Name
  Perimeter_mid_ZN_3,                     !- Zone or ZoneList or Space or SpaceList Name
  Always On Discrete,                     !- Schedule Name
  Flow/ExteriorArea,                      !- Design Flow Rate Calculation Method
  ,                                       !- Design Flow Rate {m3/s}
  ,                                       !- Flow Rate per Floor Area {m3/s-m2}
  0.00471177345157376,                    !- Flow Rate per Exterior Surface Area {m3/s-m2}
  ,                                       !- Air Changes per Hour {1/hr}
  0,                                      !- Constant Term Coefficient
  0,                                      !- Temperature Term Coefficient
  0.224,                                  !- Velocity Term Coefficient
  0;                                      !- Velocity Squared Term Coefficient

ZoneControl:Thermostat,
  ALL_ST=Office open plan_FL=Building Story 2_SCH=A 2 Thermostat, !- Name
  ALL_ST=Office open plan_FL=Building Story 2_SCH=A 2, !- Zone or ZoneList Name
  ALL_ST=Office open plan_FL=Building Story 2_SCH=A 2 Thermostat Schedule, !- Control Type Schedule Name
  ThermostatSetpoint:DualSetpoint,        !- Control 1 Object Type
  Space Function Office open plan Thermostat 38, !- Control 1 Name
  ,                                       !- Control 2 Object Type
  ,                                       !- Control 2 Name
  ,                                       !- Control 3 Object Type
  ,                                       !- Control 3 Name
  ,                                       !- Control 4 Object Type
  ,                                       !- Control 4 Name
  0;                                      !- Temperature Difference Between Cutout And Setpoint {deltaC}

Schedule:Compact,
  ALL_ST=Office open plan_FL=Building Story 2_SCH=A 2 Thermostat Schedule, !- Name
  ALL_ST=Office open plan_FL=Building Story 2_SCH=A 2 Thermostat Schedule Type Limits, !- Schedule Type Limits Name
  Through: 12/31,                         !- Field 1
  For: AllDays,                           !- Field 2
  Until: 24:00,                           !- Field 3
  4;                                      !- Field 4

ScheduleTypeLimits,
  ALL_ST=Office open plan_FL=Building Story 2_SCH=A 2 Thermostat Schedule Type Limits, !- Name
  0,                                      !- Lower Limit Value {BasedOnField A3}
  4,                                      !- Upper Limit Value {BasedOnField A3}
  DISCRETE;                               !- Numeric Type

ThermostatSetpoint:DualSetpoint,
  Space Function Office open plan Thermostat 38, !- Name
  NECB-A-Thermostat Setpoint-Heating,     !- Heating Setpoint Temperature Schedule Name
  NECB-A-Thermostat Setpoint-Cooling;     !- Cooling Setpoint Temperature Schedule Name

ZoneHVAC:EquipmentConnections,
  ALL_ST=Office open plan_FL=Building Story 2_SCH=A 2, !- Zone Name
  ALL_ST=Office open plan_FL=Building Story 2_SCH=A 2 Equipment List, !- Zone Conditioning Equipment List Name
  ALL_ST=Office open plan_FL=Building Story 2_SCH=A 2 Inlet Node List, !- Zone Air Inlet Node or NodeList Name
  ,                                       !- Zone Air Exhaust Node or NodeList Name
  ALL_ST=Office open plan_FL=Building Story 2_SCH=A 2 Zone Air Node, !- Zone Air Node Name
  ALL_ST=Office open plan_FL=Building Story 2_SCH=A 2 Return Node List; !- Zone Return Air Node or NodeList Name

NodeList,
  ALL_ST=Office open plan_FL=Building Story 2_SCH=A 2 Inlet Node List, !- Name
  Air Terminal Single Duct VAV Reheat 8 Outlet Air Node; !- Node Name 1

NodeList,
  ALL_ST=Office open plan_FL=Building Story 2_SCH=A 2 Return Node List, !- Name
  ALL_ST=Office open plan_FL=Building Story 2_SCH=A 2 Return Air Node; !- Node Name 1

ZoneHVAC:AirDistributionUnit,
  ADU Air Terminal Single Duct VAV Reheat 8, !- Name
  Air Terminal Single Duct VAV Reheat 8 Outlet Air Node, !- Air Distribution Unit Outlet Node Name
  AirTerminal:SingleDuct:VAV:Reheat,      !- Air Terminal Object Type
  Air Terminal Single Duct VAV Reheat 8;  !- Air Terminal Name

AirTerminal:SingleDuct:VAV:Reheat,
  Air Terminal Single Duct VAV Reheat 8,  !- Name
  Always On Discrete,                     !- Availability Schedule Name
  Air Terminal Single Duct VAV Reheat 8 Damper Outlet, !- Damper Air Outlet Node Name
  Air Terminal Single Duct VAV Reheat 8 Inlet Air Node, !- Air Inlet Node Name
  Autosize,                               !- Maximum Air Flow Rate {m3/s}
  Constant,                               !- Zone Minimum Air Flow Input Method
  0.3,                                    !- Constant Minimum Air Flow Fraction
  0,                                      !- Fixed Minimum Air Flow Rate {m3/s}
  ,                                       !- Minimum Air Flow Fraction Schedule Name
  Coil:Heating:Electric,                  !- Reheat Coil Object Type
  Coil Heating Electric 8,                !- Reheat Coil Name
  Autosize,                               !- Maximum Hot Water or Steam Flow Rate {m3/s}
  0,                                      !- Minimum Hot Water or Steam Flow Rate {m3/s}
  Air Terminal Single Duct VAV Reheat 8 Outlet Air Node, !- Air Outlet Node Name
  0.001,                                  !- Convergence Tolerance
  Normal,                                 !- Damper Heating Action
  Autocalculate,                          !- Maximum Flow per Zone Floor Area During Reheat {m3/s-m2}
  0.5,                                    !- Maximum Flow Fraction During Reheat
  43;                                     !- Maximum Reheat Air Temperature {C}

Coil:Heating:Electric,
  Coil Heating Electric 8,                !- Name
  Always On Discrete,                     !- Availability Schedule Name
  1,                                      !- Efficiency
  13093.2642459869,                       !- Nominal Capacity {W}
  Air Terminal Single Duct VAV Reheat 8 Damper Outlet, !- Air Inlet Node Name
  Air Terminal Single Duct VAV Reheat 8 Outlet Air Node; !- Air Outlet Node Name

ZoneHVAC:Baseboard:Convective:Electric,
  ZoneHVACBaseboardConvectiveElectric 7,  !- Name
  Always On Discrete,                     !- Availability Schedule Name
  ,                                       !- Heating Design Capacity Method
  Autosize,                               !- Heating Design Capacity {W}
  ,                                       !- Heating Design Capacity Per Floor Area {W/m2}
  ,                                       !- Fraction of Autosized Heating Design Capacity
  1;                                      !- Efficiency

ZoneHVAC:EquipmentList,
  ALL_ST=Office open plan_FL=Building Story 2_SCH=A 2 Equipment List, !- Name
  SequentialLoad,                         !- Load Distribution Scheme
  ZoneHVAC:AirDistributionUnit,           !- Zone Equipment Object Type 1
  ADU Air Terminal Single Duct VAV Reheat 8, !- Zone Equipment Name 1
  1,                                      !- Zone Equipment Cooling Sequence 1
  1,                                      !- Zone Equipment Heating or No-Load Sequence 1
  ,                                       !- Zone Equipment Sequential Cooling Fraction Schedule Name 1
  ,                                       !- Zone Equipment Sequential Heating Fraction Schedule Name 1
  ZoneHVAC:Baseboard:Convective:Electric, !- Zone Equipment Object Type 2
  ZoneHVACBaseboardConvectiveElectric 7,  !- Zone Equipment Name 2
  2,                                      !- Zone Equipment Cooling Sequence 2
  2,                                      !- Zone Equipment Heating or No-Load Sequence 2
  ,                                       !- Zone Equipment Sequential Cooling Fraction Schedule Name 2
  ;                                       !- Zone Equipment Sequential Heating Fraction Schedule Name 2

Sizing:Zone,
  ALL_ST=Office open plan_FL=Building Story 2_SCH=A 2, !- Zone or ZoneList Name
  TemperatureDifference,                  !- Zone Cooling Design Supply Air Temperature Input Method
  13,                                     !- Zone Cooling Design Supply Air Temperature {C}
  11,                                     !- Zone Cooling Design Supply Air Temperature Difference {deltaC}
  TemperatureDifference,                  !- Zone Heating Design Supply Air Temperature Input Method
  43,                                     !- Zone Heating Design Supply Air Temperature {C}
  21,                                     !- Zone Heating Design Supply Air Temperature Difference {deltaC}
  0.0085,                                 !- Zone Cooling Design Supply Air Humidity Ratio {kgWater/kgDryAir}
  0.008,                                  !- Zone Heating Design Supply Air Humidity Ratio {kgWater/kgDryAir}
  ALL_ST=Office open plan_FL=Building Story 2_SCH=A 2 DSOA Space List, !- Design Specification Outdoor Air Object Name
  1.3,                                    !- Zone Heating Sizing Factor
  1.1,                                    !- Zone Cooling Sizing Factor
  DesignDay,                              !- Cooling Design Air Flow Method
  0,                                      !- Cooling Design Air Flow Rate {m3/s}
  0.000762,                               !- Cooling Minimum Air Flow per Zone Floor Area {m3/s-m2}
  0,                                      !- Cooling Minimum Air Flow {m3/s}
  0,                                      !- Cooling Minimum Air Flow Fraction
  DesignDay,                              !- Heating Design Air Flow Method
  0,                                      !- Heating Design Air Flow Rate {m3/s}
  0.002032,                               !- Heating Maximum Air Flow per Zone Floor Area {m3/s-m2}
  0.1415762,                              !- Heating Maximum Air Flow {m3/s}
  0.3,                                    !- Heating Maximum Air Flow Fraction
  ,                                       !- Design Specification Zone Air Distribution Object Name
  No,                                     !- Account for Dedicated Outdoor Air System
  ,                                       !- Dedicated Outdoor Air System Control Strategy
  ,                                       !- Dedicated Outdoor Air Low Setpoint Temperature for Design {C}
  ,                                       !- Dedicated Outdoor Air High Setpoint Temperature for Design {C}
  Sensible Load Only No Latent Load,      !- Zone Load Sizing Method
  HumidityRatioDifference,                !- Zone Latent Cooling Design Supply Air Humidity Ratio Input Method
  ,                                       !- Zone Dehumidification Design Supply Air Humidity Ratio {kgWater/kgDryAir}
  0.005,                                  !- Zone Cooling Design Supply Air Humidity Ratio Difference {kgWater/kgDryAir}
  HumidityRatioDifference,                !- Zone Latent Heating Design Supply Air Humidity Ratio Input Method
  ,                                       !- Zone Humidification Design Supply Air Humidity Ratio {kgWater/kgDryAir}
  0.005,                                  !- Zone Humidification Design Supply Air Humidity Ratio Difference {kgWater/kgDryAir}
  ,                                       !- Zone Humidistat Dehumidification Set Point Schedule Name
  ,                                       !- Zone Humidistat Humidification Set Point Schedule Name
  Coincident;                             !- Type of Space Sum to Use

DesignSpecification:OutdoorAir:SpaceList,
  ALL_ST=Office open plan_FL=Building Story 2_SCH=A 2 DSOA Space List, !- Name
  Perimeter_mid_ZN_3,                     !- Space Name 1
  Space Function Office open plan Ventilation; !- Space Design Specification Outdoor Air Object Name 1

Zone,
  ALL_ST=Office open plan_FL=Building Story 2_SCH=A 3, !- Name
  0,                                      !- Direction of Relative North {deg}
  0,                                      !- X Origin {m}
  0,                                      !- Y Origin {m}
  0,                                      !- Z Origin {m}
  ,                                       !- Type
  1,                                      !- Multiplier
  ,                                       !- Ceiling Height {m}
  ,                                       !- Volume {m3}
  ,                                       !- Floor Area {m2}
  ,                                       !- Zone Inside Convection Algorithm
  ,                                       !- Zone Outside Convection Algorithm
  Yes;                                    !- Part of Total Floor Area

Space,
  Perimeter_mid_ZN_1,                     !- Name
  ALL_ST=Office open plan_FL=Building Story 2_SCH=A 3, !- Zone Name
  ,                                       !- Ceiling Height {m}
  568.769988336336,                       !- Volume {m3}
  ,                                       !- Floor Area {m2}
  Space Function Office open plan;        !- Space Type

BuildingSurface:Detailed,
  Perimeter_mid_ZN_1_Ceiling,             !- Name
  Ceiling,                                !- Surface Type
  BTAP-Int-Ceiling,                       !- Construction Name
  ALL_ST=Office open plan_FL=Building Story 2_SCH=A 3, !- Zone Name
  Perimeter_mid_ZN_1,                     !- Space Name
  Surface,                                !- Outside Boundary Condition
  MidFloor_Plenum_Floor_1,                !- Outside Boundary Condition Object
  NoSun,                                  !- Sun Exposure
  NoWind,                                 !- Wind Exposure
  ,                                       !- View Factor to Ground
  ,                                       !- Number of Vertices
  49.911, 0, 6.7056,                      !- X,Y,Z Vertex 1 {m}
  45.3375, 4.5732, 6.7056,                !- X,Y,Z Vertex 2 {m}
  4.5732, 4.5732, 6.7056,                 !- X,Y,Z Vertex 3 {m}
  0, 0, 6.7056;                           !- X,Y,Z Vertex 4 {m}

BuildingSurface:Detailed,
  Perimeter_mid_ZN_1_Floor,               !- Name
  Floor,                                  !- Surface Type
  BTAP-Int-Floor,                         !- Construction Name
  ALL_ST=Office open plan_FL=Building Story 2_SCH=A 3, !- Zone Name
  Perimeter_mid_ZN_1,                     !- Space Name
  Surface,                                !- Outside Boundary Condition
  FirstFloor_Plenum_Ceiling_1,            !- Outside Boundary Condition Object
  NoSun,                                  !- Sun Exposure
  NoWind,                                 !- Wind Exposure
  ,                                       !- View Factor to Ground
  ,                                       !- Number of Vertices
  45.3375, 4.5732, 3.9624,                !- X,Y,Z Vertex 1 {m}
  49.911, 0, 3.9624,                      !- X,Y,Z Vertex 2 {m}
  0, 0, 3.9624,                           !- X,Y,Z Vertex 3 {m}
  4.5732, 4.5732, 3.9624;                 !- X,Y,Z Vertex 4 {m}

BuildingSurface:Detailed,
  Perimeter_mid_ZN_1_Wall_East,           !- Name
  Wall,                                   !- Surface Type
  BTAP-Int-Wall,                          !- Construction Name
  ALL_ST=Office open plan_FL=Building Story 2_SCH=A 3, !- Zone Name
  Perimeter_mid_ZN_1,                     !- Space Name
  Surface,                                !- Outside Boundary Condition
  Perimeter_mid_ZN_2_Wall_South,          !- Outside Boundary Condition Object
  NoSun,                                  !- Sun Exposure
  NoWind,                                 !- Wind Exposure
  ,                                       !- View Factor to Ground
  ,                                       !- Number of Vertices
  49.911, 0, 6.7056,                      !- X,Y,Z Vertex 1 {m}
  49.911, 0, 3.9624,                      !- X,Y,Z Vertex 2 {m}
  45.3375, 4.5732, 3.9624,                !- X,Y,Z Vertex 3 {m}
  45.3375, 4.5732, 6.7056;                !- X,Y,Z Vertex 4 {m}

BuildingSurface:Detailed,
  Perimeter_mid_ZN_1_Wall_North,          !- Name
  Wall,                                   !- Surface Type
  BTAP-Int-Wall,                          !- Construction Name
  ALL_ST=Office open plan_FL=Building Story 2_SCH=A 3, !- Zone Name
  Perimeter_mid_ZN_1,                     !- Space Name
  Surface,                                !- Outside Boundary Condition
  Core_mid_ZN_5_Wall_South,               !- Outside Boundary Condition Object
  NoSun,                                  !- Sun Exposure
  NoWind,                                 !- Wind Exposure
  ,                                       !- View Factor to Ground
  ,                                       !- Number of Vertices
  45.3375, 4.5732, 6.7056,                !- X,Y,Z Vertex 1 {m}
  45.3375, 4.5732, 3.9624,                !- X,Y,Z Vertex 2 {m}
  4.5732, 4.5732, 3.9624,                 !- X,Y,Z Vertex 3 {m}
  4.5732, 4.5732, 6.7056;                 !- X,Y,Z Vertex 4 {m}

BuildingSurface:Detailed,
  Perimeter_mid_ZN_1_Wall_South,          !- Name
  Wall,                                   !- Surface Type
  BTAP-Ext-Wall-Mass:U-0.29,              !- Construction Name
  ALL_ST=Office open plan_FL=Building Story 2_SCH=A 3, !- Zone Name
  Perimeter_mid_ZN_1,                     !- Space Name
  Outdoors,                               !- Outside Boundary Condition
  ,                                       !- Outside Boundary Condition Object
  SunExposed,                             !- Sun Exposure
  WindExposed,                            !- Wind Exposure
  ,                                       !- View Factor to Ground
  ,                                       !- Number of Vertices
  0, 0, 6.7056,                           !- X,Y,Z Vertex 1 {m}
  0, 0, 3.9624,                           !- X,Y,Z Vertex 2 {m}
  49.911, 0, 3.9624,                      !- X,Y,Z Vertex 3 {m}
  49.911, 0, 6.7056;                      !- X,Y,Z Vertex 4 {m}

FenestrationSurface:Detailed,
  Perimeter_mid_ZN_1_Wall_South_FixedWindow, !- Name
  Window,                                 !- Surface Type
  BTAP-Ext-FixedWindow:U=0.280 SHGC=0.600, !- Construction Name
  Perimeter_mid_ZN_1_Wall_South,          !- Building Surface Name
  ,                                       !- Outside Boundary Condition Object
  ,                                       !- View Factor to Ground
  ,                                       !- Frame and Divider Name
  ,                                       !- Multiplier
  ,                                       !- Number of Vertices
  0.0254, 0, 6.04522354966887,            !- X,Y,Z Vertex 1 {m}
  0.0254, 0, 4.7244,                      !- X,Y,Z Vertex 2 {m}
  49.8856, 0, 4.7244,                     !- X,Y,Z Vertex 3 {m}
  49.8856, 0, 6.04522354966887;           !- X,Y,Z Vertex 4 {m}

BuildingSurface:Detailed,
  Perimeter_mid_ZN_1_Wall_West,           !- Name
  Wall,                                   !- Surface Type
  BTAP-Int-Wall,                          !- Construction Name
  ALL_ST=Office open plan_FL=Building Story 2_SCH=A 3, !- Zone Name
  Perimeter_mid_ZN_1,                     !- Space Name
  Surface,                                !- Outside Boundary Condition
  Perimeter_mid_ZN_4_Wall_South,          !- Outside Boundary Condition Object
  NoSun,                                  !- Sun Exposure
  NoWind,                                 !- Wind Exposure
  ,                                       !- View Factor to Ground
  ,                                       !- Number of Vertices
  4.5732, 4.5732, 6.7056,                 !- X,Y,Z Vertex 1 {m}
  4.5732, 4.5732, 3.9624,                 !- X,Y,Z Vertex 2 {m}
  0, 0, 3.9624,                           !- X,Y,Z Vertex 3 {m}
  0, 0, 6.7056;                           !- X,Y,Z Vertex 4 {m}

ZoneInfiltration:DesignFlowRate,
  Perimeter_mid_ZN_1 Infiltration,        !- Name
  Perimeter_mid_ZN_1,                     !- Zone or ZoneList or Space or SpaceList Name
  Always On Discrete,                     !- Schedule Name
  Flow/ExteriorArea,                      !- Design Flow Rate Calculation Method
  ,                                       !- Design Flow Rate {m3/s}
  ,                                       !- Flow Rate per Floor Area {m3/s-m2}
  0.00471177345157376,                    !- Flow Rate per Exterior Surface Area {m3/s-m2}
  ,                                       !- Air Changes per Hour {1/hr}
  0,                                      !- Constant Term Coefficient
  0,                                      !- Temperature Term Coefficient
  0.224,                                  !- Velocity Term Coefficient
  0;                                      !- Velocity Squared Term Coefficient

ZoneControl:Thermostat,
  ALL_ST=Office open plan_FL=Building Story 2_SCH=A 3 Thermostat, !- Name
  ALL_ST=Office open plan_FL=Building Story 2_SCH=A 3, !- Zone or ZoneList Name
  ALL_ST=Office open plan_FL=Building Story 2_SCH=A 3 Thermostat Schedule, !- Control Type Schedule Name
  ThermostatSetpoint:DualSetpoint,        !- Control 1 Object Type
  Space Function Office open plan Thermostat 41, !- Control 1 Name
  ,                                       !- Control 2 Object Type
  ,                                       !- Control 2 Name
  ,                                       !- Control 3 Object Type
  ,                                       !- Control 3 Name
  ,                                       !- Control 4 Object Type
  ,                                       !- Control 4 Name
  0;                                      !- Temperature Difference Between Cutout And Setpoint {deltaC}

Schedule:Compact,
  ALL_ST=Office open plan_FL=Building Story 2_SCH=A 3 Thermostat Schedule, !- Name
  ALL_ST=Office open plan_FL=Building Story 2_SCH=A 3 Thermostat Schedule Type Limits, !- Schedule Type Limits Name
  Through: 12/31,                         !- Field 1
  For: AllDays,                           !- Field 2
  Until: 24:00,                           !- Field 3
  4;                                      !- Field 4

ScheduleTypeLimits,
  ALL_ST=Office open plan_FL=Building Story 2_SCH=A 3 Thermostat Schedule Type Limits, !- Name
  0,                                      !- Lower Limit Value {BasedOnField A3}
  4,                                      !- Upper Limit Value {BasedOnField A3}
  DISCRETE;                               !- Numeric Type

ThermostatSetpoint:DualSetpoint,
  Space Function Office open plan Thermostat 41, !- Name
  NECB-A-Thermostat Setpoint-Heating,     !- Heating Setpoint Temperature Schedule Name
  NECB-A-Thermostat Setpoint-Cooling;     !- Cooling Setpoint Temperature Schedule Name

ZoneHVAC:EquipmentConnections,
  ALL_ST=Office open plan_FL=Building Story 2_SCH=A 3, !- Zone Name
  ALL_ST=Office open plan_FL=Building Story 2_SCH=A 3 Equipment List, !- Zone Conditioning Equipment List Name
  ALL_ST=Office open plan_FL=Building Story 2_SCH=A 3 Inlet Node List, !- Zone Air Inlet Node or NodeList Name
  ,                                       !- Zone Air Exhaust Node or NodeList Name
  ALL_ST=Office open plan_FL=Building Story 2_SCH=A 3 Zone Air Node, !- Zone Air Node Name
  ALL_ST=Office open plan_FL=Building Story 2_SCH=A 3 Return Node List; !- Zone Return Air Node or NodeList Name

NodeList,
  ALL_ST=Office open plan_FL=Building Story 2_SCH=A 3 Inlet Node List, !- Name
  Air Terminal Single Duct VAV Reheat 9 Outlet Air Node; !- Node Name 1

NodeList,
  ALL_ST=Office open plan_FL=Building Story 2_SCH=A 3 Return Node List, !- Name
  ALL_ST=Office open plan_FL=Building Story 2_SCH=A 3 Return Air Node; !- Node Name 1

ZoneHVAC:AirDistributionUnit,
  ADU Air Terminal Single Duct VAV Reheat 9, !- Name
  Air Terminal Single Duct VAV Reheat 9 Outlet Air Node, !- Air Distribution Unit Outlet Node Name
  AirTerminal:SingleDuct:VAV:Reheat,      !- Air Terminal Object Type
  Air Terminal Single Duct VAV Reheat 9;  !- Air Terminal Name

AirTerminal:SingleDuct:VAV:Reheat,
  Air Terminal Single Duct VAV Reheat 9,  !- Name
  Always On Discrete,                     !- Availability Schedule Name
  Air Terminal Single Duct VAV Reheat 9 Damper Outlet, !- Damper Air Outlet Node Name
  Air Terminal Single Duct VAV Reheat 9 Inlet Air Node, !- Air Inlet Node Name
  Autosize,                               !- Maximum Air Flow Rate {m3/s}
  Constant,                               !- Zone Minimum Air Flow Input Method
  0.3,                                    !- Constant Minimum Air Flow Fraction
  0,                                      !- Fixed Minimum Air Flow Rate {m3/s}
  ,                                       !- Minimum Air Flow Fraction Schedule Name
  Coil:Heating:Electric,                  !- Reheat Coil Object Type
  Coil Heating Electric 9,                !- Reheat Coil Name
  Autosize,                               !- Maximum Hot Water or Steam Flow Rate {m3/s}
  0,                                      !- Minimum Hot Water or Steam Flow Rate {m3/s}
  Air Terminal Single Duct VAV Reheat 9 Outlet Air Node, !- Air Outlet Node Name
  0.001,                                  !- Convergence Tolerance
  Normal,                                 !- Damper Heating Action
  Autocalculate,                          !- Maximum Flow per Zone Floor Area During Reheat {m3/s-m2}
  0.5,                                    !- Maximum Flow Fraction During Reheat
  43;                                     !- Maximum Reheat Air Temperature {C}

Coil:Heating:Electric,
  Coil Heating Electric 9,                !- Name
  Always On Discrete,                     !- Availability Schedule Name
  1,                                      !- Efficiency
  13198.4716415405,                       !- Nominal Capacity {W}
  Air Terminal Single Duct VAV Reheat 9 Damper Outlet, !- Air Inlet Node Name
  Air Terminal Single Duct VAV Reheat 9 Outlet Air Node; !- Air Outlet Node Name

ZoneHVAC:Baseboard:Convective:Electric,
  ZoneHVACBaseboardConvectiveElectric 8,  !- Name
  Always On Discrete,                     !- Availability Schedule Name
  ,                                       !- Heating Design Capacity Method
  Autosize,                               !- Heating Design Capacity {W}
  ,                                       !- Heating Design Capacity Per Floor Area {W/m2}
  ,                                       !- Fraction of Autosized Heating Design Capacity
  1;                                      !- Efficiency

ZoneHVAC:EquipmentList,
  ALL_ST=Office open plan_FL=Building Story 2_SCH=A 3 Equipment List, !- Name
  SequentialLoad,                         !- Load Distribution Scheme
  ZoneHVAC:AirDistributionUnit,           !- Zone Equipment Object Type 1
  ADU Air Terminal Single Duct VAV Reheat 9, !- Zone Equipment Name 1
  1,                                      !- Zone Equipment Cooling Sequence 1
  1,                                      !- Zone Equipment Heating or No-Load Sequence 1
  ,                                       !- Zone Equipment Sequential Cooling Fraction Schedule Name 1
  ,                                       !- Zone Equipment Sequential Heating Fraction Schedule Name 1
  ZoneHVAC:Baseboard:Convective:Electric, !- Zone Equipment Object Type 2
  ZoneHVACBaseboardConvectiveElectric 8,  !- Zone Equipment Name 2
  2,                                      !- Zone Equipment Cooling Sequence 2
  2,                                      !- Zone Equipment Heating or No-Load Sequence 2
  ,                                       !- Zone Equipment Sequential Cooling Fraction Schedule Name 2
  ;                                       !- Zone Equipment Sequential Heating Fraction Schedule Name 2

Sizing:Zone,
  ALL_ST=Office open plan_FL=Building Story 2_SCH=A 3, !- Zone or ZoneList Name
  TemperatureDifference,                  !- Zone Cooling Design Supply Air Temperature Input Method
  13,                                     !- Zone Cooling Design Supply Air Temperature {C}
  11,                                     !- Zone Cooling Design Supply Air Temperature Difference {deltaC}
  TemperatureDifference,                  !- Zone Heating Design Supply Air Temperature Input Method
  43,                                     !- Zone Heating Design Supply Air Temperature {C}
  21,                                     !- Zone Heating Design Supply Air Temperature Difference {deltaC}
  0.0085,                                 !- Zone Cooling Design Supply Air Humidity Ratio {kgWater/kgDryAir}
  0.008,                                  !- Zone Heating Design Supply Air Humidity Ratio {kgWater/kgDryAir}
  ALL_ST=Office open plan_FL=Building Story 2_SCH=A 3 DSOA Space List, !- Design Specification Outdoor Air Object Name
  1.3,                                    !- Zone Heating Sizing Factor
  1.1,                                    !- Zone Cooling Sizing Factor
  DesignDay,                              !- Cooling Design Air Flow Method
  0,                                      !- Cooling Design Air Flow Rate {m3/s}
  0.000762,                               !- Cooling Minimum Air Flow per Zone Floor Area {m3/s-m2}
  0,                                      !- Cooling Minimum Air Flow {m3/s}
  0,                                      !- Cooling Minimum Air Flow Fraction
  DesignDay,                              !- Heating Design Air Flow Method
  0,                                      !- Heating Design Air Flow Rate {m3/s}
  0.002032,                               !- Heating Maximum Air Flow per Zone Floor Area {m3/s-m2}
  0.1415762,                              !- Heating Maximum Air Flow {m3/s}
  0.3,                                    !- Heating Maximum Air Flow Fraction
  ,                                       !- Design Specification Zone Air Distribution Object Name
  No,                                     !- Account for Dedicated Outdoor Air System
  ,                                       !- Dedicated Outdoor Air System Control Strategy
  ,                                       !- Dedicated Outdoor Air Low Setpoint Temperature for Design {C}
  ,                                       !- Dedicated Outdoor Air High Setpoint Temperature for Design {C}
  Sensible Load Only No Latent Load,      !- Zone Load Sizing Method
  HumidityRatioDifference,                !- Zone Latent Cooling Design Supply Air Humidity Ratio Input Method
  ,                                       !- Zone Dehumidification Design Supply Air Humidity Ratio {kgWater/kgDryAir}
  0.005,                                  !- Zone Cooling Design Supply Air Humidity Ratio Difference {kgWater/kgDryAir}
  HumidityRatioDifference,                !- Zone Latent Heating Design Supply Air Humidity Ratio Input Method
  ,                                       !- Zone Humidification Design Supply Air Humidity Ratio {kgWater/kgDryAir}
  0.005,                                  !- Zone Humidification Design Supply Air Humidity Ratio Difference {kgWater/kgDryAir}
  ,                                       !- Zone Humidistat Dehumidification Set Point Schedule Name
  ,                                       !- Zone Humidistat Humidification Set Point Schedule Name
  Coincident;                             !- Type of Space Sum to Use

DesignSpecification:OutdoorAir:SpaceList,
  ALL_ST=Office open plan_FL=Building Story 2_SCH=A 3 DSOA Space List, !- Name
  Perimeter_mid_ZN_1,                     !- Space Name 1
  Space Function Office open plan Ventilation; !- Space Design Specification Outdoor Air Object Name 1

Zone,
  ALL_ST=Office open plan_FL=Building Story 2_SCH=A 4, !- Name
  0,                                      !- Direction of Relative North {deg}
  0,                                      !- X Origin {m}
  0,                                      !- Y Origin {m}
  0,                                      !- Z Origin {m}
  ,                                       !- Type
  1,                                      !- Multiplier
  ,                                       !- Ceiling Height {m}
  ,                                       !- Volume {m3}
  ,                                       !- Floor Area {m2}
  ,                                       !- Zone Inside Convection Algorithm
  ,                                       !- Zone Outside Convection Algorithm
  Yes;                                    !- Part of Total Floor Area

Space,
  Perimeter_mid_ZN_2,                     !- Name
  ALL_ST=Office open plan_FL=Building Story 2_SCH=A 4, !- Zone Name
  ,                                       !- Ceiling Height {m}
  360.07845085512,                        !- Volume {m3}
  ,                                       !- Floor Area {m2}
  Space Function Office open plan;        !- Space Type

BuildingSurface:Detailed,
  Perimeter_mid_ZN_2_Ceiling,             !- Name
  Ceiling,                                !- Surface Type
  BTAP-Int-Ceiling,                       !- Construction Name
  ALL_ST=Office open plan_FL=Building Story 2_SCH=A 4, !- Zone Name
  Perimeter_mid_ZN_2,                     !- Space Name
  Surface,                                !- Outside Boundary Condition
  MidFloor_Plenum_Floor_2,                !- Outside Boundary Condition Object
  NoSun,                                  !- Sun Exposure
  NoWind,                                 !- Wind Exposure
  ,                                       !- View Factor to Ground
  ,                                       !- Number of Vertices
  49.911, 0, 6.7056,                      !- X,Y,Z Vertex 1 {m}
  49.911, 33.2738, 6.7056,                !- X,Y,Z Vertex 2 {m}
  45.3375, 28.7006, 6.7056,               !- X,Y,Z Vertex 3 {m}
  45.3375, 4.5732, 6.7056;                !- X,Y,Z Vertex 4 {m}

BuildingSurface:Detailed,
  Perimeter_mid_ZN_2_Floor,               !- Name
  Floor,                                  !- Surface Type
  BTAP-Int-Floor,                         !- Construction Name
  ALL_ST=Office open plan_FL=Building Story 2_SCH=A 4, !- Zone Name
  Perimeter_mid_ZN_2,                     !- Space Name
  Surface,                                !- Outside Boundary Condition
  FirstFloor_Plenum_Ceiling_2,            !- Outside Boundary Condition Object
  NoSun,                                  !- Sun Exposure
  NoWind,                                 !- Wind Exposure
  ,                                       !- View Factor to Ground
  ,                                       !- Number of Vertices
  49.911, 33.2738, 3.9624,                !- X,Y,Z Vertex 1 {m}
  49.911, 0, 3.9624,                      !- X,Y,Z Vertex 2 {m}
  45.3375, 4.5732, 3.9624,                !- X,Y,Z Vertex 3 {m}
  45.3375, 28.7006, 3.9624;               !- X,Y,Z Vertex 4 {m}

BuildingSurface:Detailed,
  Perimeter_mid_ZN_2_Wall_East,           !- Name
  Wall,                                   !- Surface Type
  BTAP-Ext-Wall-Mass:U-0.29,              !- Construction Name
  ALL_ST=Office open plan_FL=Building Story 2_SCH=A 4, !- Zone Name
  Perimeter_mid_ZN_2,                     !- Space Name
  Outdoors,                               !- Outside Boundary Condition
  ,                                       !- Outside Boundary Condition Object
  SunExposed,                             !- Sun Exposure
  WindExposed,                            !- Wind Exposure
  ,                                       !- View Factor to Ground
  ,                                       !- Number of Vertices
  49.911, 0, 6.7056,                      !- X,Y,Z Vertex 1 {m}
  49.911, 0, 3.9624,                      !- X,Y,Z Vertex 2 {m}
  49.911, 33.2738, 3.9624,                !- X,Y,Z Vertex 3 {m}
  49.911, 33.2738, 6.7056;                !- X,Y,Z Vertex 4 {m}

FenestrationSurface:Detailed,
  Perimeter_mid_ZN_2_Wall_East_FixedWindow, !- Name
  Window,                                 !- Surface Type
  BTAP-Ext-FixedWindow:U=0.280 SHGC=0.600, !- Construction Name
  Perimeter_mid_ZN_2_Wall_East,           !- Building Surface Name
  ,                                       !- Outside Boundary Condition Object
  ,                                       !- View Factor to Ground
  ,                                       !- Frame and Divider Name
  ,                                       !- Multiplier
  ,                                       !- Number of Vertices
  49.911, 0.0254, 6.04589676443909,       !- X,Y,Z Vertex 1 {m}
  49.911, 0.0254, 4.7244,                 !- X,Y,Z Vertex 2 {m}
  49.911, 33.2484, 4.7244,                !- X,Y,Z Vertex 3 {m}
  49.911, 33.2484, 6.04589676443909;      !- X,Y,Z Vertex 4 {m}

BuildingSurface:Detailed,
  Perimeter_mid_ZN_2_Wall_North,          !- Name
  Wall,                                   !- Surface Type
  BTAP-Int-Wall,                          !- Construction Name
  ALL_ST=Office open plan_FL=Building Story 2_SCH=A 4, !- Zone Name
  Perimeter_mid_ZN_2,                     !- Space Name
  Surface,                                !- Outside Boundary Condition
  Perimeter_mid_ZN_3_Wall_East,           !- Outside Boundary Condition Object
  NoSun,                                  !- Sun Exposure
  NoWind,                                 !- Wind Exposure
  ,                                       !- View Factor to Ground
  ,                                       !- Number of Vertices
  49.911, 33.2738, 6.7056,                !- X,Y,Z Vertex 1 {m}
  49.911, 33.2738, 3.9624,                !- X,Y,Z Vertex 2 {m}
  45.3375, 28.7006, 3.9624,               !- X,Y,Z Vertex 3 {m}
  45.3375, 28.7006, 6.7056;               !- X,Y,Z Vertex 4 {m}

BuildingSurface:Detailed,
  Perimeter_mid_ZN_2_Wall_South,          !- Name
  Wall,                                   !- Surface Type
  BTAP-Int-Wall,                          !- Construction Name
  ALL_ST=Office open plan_FL=Building Story 2_SCH=A 4, !- Zone Name
  Perimeter_mid_ZN_2,                     !- Space Name
  Surface,                                !- Outside Boundary Condition
  Perimeter_mid_ZN_1_Wall_East,           !- Outside Boundary Condition Object
  NoSun,                                  !- Sun Exposure
  NoWind,                                 !- Wind Exposure
  ,                                       !- View Factor to Ground
  ,                                       !- Number of Vertices
  45.3375, 4.5732, 6.7056,                !- X,Y,Z Vertex 1 {m}
  45.3375, 4.5732, 3.9624,                !- X,Y,Z Vertex 2 {m}
  49.911, 0, 3.9624,                      !- X,Y,Z Vertex 3 {m}
  49.911, 0, 6.7056;                      !- X,Y,Z Vertex 4 {m}

BuildingSurface:Detailed,
  Perimeter_mid_ZN_2_Wall_West,           !- Name
  Wall,                                   !- Surface Type
  BTAP-Int-Wall,                          !- Construction Name
  ALL_ST=Office open plan_FL=Building Story 2_SCH=A 4, !- Zone Name
  Perimeter_mid_ZN_2,                     !- Space Name
  Surface,                                !- Outside Boundary Condition
  Core_mid_ZN_5_Wall_East,                !- Outside Boundary Condition Object
  NoSun,                                  !- Sun Exposure
  NoWind,                                 !- Wind Exposure
  ,                                       !- View Factor to Ground
  ,                                       !- Number of Vertices
  45.3375, 28.7006, 6.7056,               !- X,Y,Z Vertex 1 {m}
  45.3375, 28.7006, 3.9624,               !- X,Y,Z Vertex 2 {m}
  45.3375, 4.5732, 3.9624,                !- X,Y,Z Vertex 3 {m}
  45.3375, 4.5732, 6.7056;                !- X,Y,Z Vertex 4 {m}

ZoneInfiltration:DesignFlowRate,
  Perimeter_mid_ZN_2 Infiltration,        !- Name
  Perimeter_mid_ZN_2,                     !- Zone or ZoneList or Space or SpaceList Name
  Always On Discrete,                     !- Schedule Name
  Flow/ExteriorArea,                      !- Design Flow Rate Calculation Method
  ,                                       !- Design Flow Rate {m3/s}
  ,                                       !- Flow Rate per Floor Area {m3/s-m2}
  0.00471177345157376,                    !- Flow Rate per Exterior Surface Area {m3/s-m2}
  ,                                       !- Air Changes per Hour {1/hr}
  0,                                      !- Constant Term Coefficient
  0,                                      !- Temperature Term Coefficient
  0.224,                                  !- Velocity Term Coefficient
  0;                                      !- Velocity Squared Term Coefficient

ZoneControl:Thermostat,
  ALL_ST=Office open plan_FL=Building Story 2_SCH=A 4 Thermostat, !- Name
  ALL_ST=Office open plan_FL=Building Story 2_SCH=A 4, !- Zone or ZoneList Name
  ALL_ST=Office open plan_FL=Building Story 2_SCH=A 4 Thermostat Schedule, !- Control Type Schedule Name
  ThermostatSetpoint:DualSetpoint,        !- Control 1 Object Type
  Space Function Office open plan Thermostat 43, !- Control 1 Name
  ,                                       !- Control 2 Object Type
  ,                                       !- Control 2 Name
  ,                                       !- Control 3 Object Type
  ,                                       !- Control 3 Name
  ,                                       !- Control 4 Object Type
  ,                                       !- Control 4 Name
  0;                                      !- Temperature Difference Between Cutout And Setpoint {deltaC}

Schedule:Compact,
  ALL_ST=Office open plan_FL=Building Story 2_SCH=A 4 Thermostat Schedule, !- Name
  ALL_ST=Office open plan_FL=Building Story 2_SCH=A 4 Thermostat Schedule Type Limits, !- Schedule Type Limits Name
  Through: 12/31,                         !- Field 1
  For: AllDays,                           !- Field 2
  Until: 24:00,                           !- Field 3
  4;                                      !- Field 4

ScheduleTypeLimits,
  ALL_ST=Office open plan_FL=Building Story 2_SCH=A 4 Thermostat Schedule Type Limits, !- Name
  0,                                      !- Lower Limit Value {BasedOnField A3}
  4,                                      !- Upper Limit Value {BasedOnField A3}
  DISCRETE;                               !- Numeric Type

ThermostatSetpoint:DualSetpoint,
  Space Function Office open plan Thermostat 43, !- Name
  NECB-A-Thermostat Setpoint-Heating,     !- Heating Setpoint Temperature Schedule Name
  NECB-A-Thermostat Setpoint-Cooling;     !- Cooling Setpoint Temperature Schedule Name

ZoneHVAC:EquipmentConnections,
  ALL_ST=Office open plan_FL=Building Story 2_SCH=A 4, !- Zone Name
  ALL_ST=Office open plan_FL=Building Story 2_SCH=A 4 Equipment List, !- Zone Conditioning Equipment List Name
  ALL_ST=Office open plan_FL=Building Story 2_SCH=A 4 Inlet Node List, !- Zone Air Inlet Node or NodeList Name
  ,                                       !- Zone Air Exhaust Node or NodeList Name
  ALL_ST=Office open plan_FL=Building Story 2_SCH=A 4 Zone Air Node, !- Zone Air Node Name
  ALL_ST=Office open plan_FL=Building Story 2_SCH=A 4 Return Node List; !- Zone Return Air Node or NodeList Name

NodeList,
  ALL_ST=Office open plan_FL=Building Story 2_SCH=A 4 Inlet Node List, !- Name
  Air Terminal Single Duct VAV Reheat 10 Outlet Air Node; !- Node Name 1

NodeList,
  ALL_ST=Office open plan_FL=Building Story 2_SCH=A 4 Return Node List, !- Name
  ALL_ST=Office open plan_FL=Building Story 2_SCH=A 4 Return Air Node; !- Node Name 1

ZoneHVAC:AirDistributionUnit,
  ADU Air Terminal Single Duct VAV Reheat 10, !- Name
  Air Terminal Single Duct VAV Reheat 10 Outlet Air Node, !- Air Distribution Unit Outlet Node Name
  AirTerminal:SingleDuct:VAV:Reheat,      !- Air Terminal Object Type
  Air Terminal Single Duct VAV Reheat 10; !- Air Terminal Name

AirTerminal:SingleDuct:VAV:Reheat,
  Air Terminal Single Duct VAV Reheat 10, !- Name
  Always On Discrete,                     !- Availability Schedule Name
  Air Terminal Single Duct VAV Reheat 10 Damper Outlet, !- Damper Air Outlet Node Name
  Air Terminal Single Duct VAV Reheat 10 Inlet Air Node, !- Air Inlet Node Name
  Autosize,                               !- Maximum Air Flow Rate {m3/s}
  Constant,                               !- Zone Minimum Air Flow Input Method
  0.3,                                    !- Constant Minimum Air Flow Fraction
  0,                                      !- Fixed Minimum Air Flow Rate {m3/s}
  ,                                       !- Minimum Air Flow Fraction Schedule Name
  Coil:Heating:Electric,                  !- Reheat Coil Object Type
  Coil Heating Electric 10,               !- Reheat Coil Name
  Autosize,                               !- Maximum Hot Water or Steam Flow Rate {m3/s}
  0,                                      !- Minimum Hot Water or Steam Flow Rate {m3/s}
  Air Terminal Single Duct VAV Reheat 10 Outlet Air Node, !- Air Outlet Node Name
  0.001,                                  !- Convergence Tolerance
  Normal,                                 !- Damper Heating Action
  Autocalculate,                          !- Maximum Flow per Zone Floor Area During Reheat {m3/s-m2}
  0.5,                                    !- Maximum Flow Fraction During Reheat
  43;                                     !- Maximum Reheat Air Temperature {C}

Coil:Heating:Electric,
  Coil Heating Electric 10,               !- Name
  Always On Discrete,                     !- Availability Schedule Name
  1,                                      !- Efficiency
  9625.0167131424,                        !- Nominal Capacity {W}
  Air Terminal Single Duct VAV Reheat 10 Damper Outlet, !- Air Inlet Node Name
  Air Terminal Single Duct VAV Reheat 10 Outlet Air Node; !- Air Outlet Node Name

ZoneHVAC:Baseboard:Convective:Electric,
  ZoneHVACBaseboardConvectiveElectric 9,  !- Name
  Always On Discrete,                     !- Availability Schedule Name
  ,                                       !- Heating Design Capacity Method
  Autosize,                               !- Heating Design Capacity {W}
  ,                                       !- Heating Design Capacity Per Floor Area {W/m2}
  ,                                       !- Fraction of Autosized Heating Design Capacity
  1;                                      !- Efficiency

ZoneHVAC:EquipmentList,
  ALL_ST=Office open plan_FL=Building Story 2_SCH=A 4 Equipment List, !- Name
  SequentialLoad,                         !- Load Distribution Scheme
  ZoneHVAC:AirDistributionUnit,           !- Zone Equipment Object Type 1
  ADU Air Terminal Single Duct VAV Reheat 10, !- Zone Equipment Name 1
  1,                                      !- Zone Equipment Cooling Sequence 1
  1,                                      !- Zone Equipment Heating or No-Load Sequence 1
  ,                                       !- Zone Equipment Sequential Cooling Fraction Schedule Name 1
  ,                                       !- Zone Equipment Sequential Heating Fraction Schedule Name 1
  ZoneHVAC:Baseboard:Convective:Electric, !- Zone Equipment Object Type 2
  ZoneHVACBaseboardConvectiveElectric 9,  !- Zone Equipment Name 2
  2,                                      !- Zone Equipment Cooling Sequence 2
  2,                                      !- Zone Equipment Heating or No-Load Sequence 2
  ,                                       !- Zone Equipment Sequential Cooling Fraction Schedule Name 2
  ;                                       !- Zone Equipment Sequential Heating Fraction Schedule Name 2

Sizing:Zone,
  ALL_ST=Office open plan_FL=Building Story 2_SCH=A 4, !- Zone or ZoneList Name
  TemperatureDifference,                  !- Zone Cooling Design Supply Air Temperature Input Method
  13,                                     !- Zone Cooling Design Supply Air Temperature {C}
  11,                                     !- Zone Cooling Design Supply Air Temperature Difference {deltaC}
  TemperatureDifference,                  !- Zone Heating Design Supply Air Temperature Input Method
  43,                                     !- Zone Heating Design Supply Air Temperature {C}
  21,                                     !- Zone Heating Design Supply Air Temperature Difference {deltaC}
  0.0085,                                 !- Zone Cooling Design Supply Air Humidity Ratio {kgWater/kgDryAir}
  0.008,                                  !- Zone Heating Design Supply Air Humidity Ratio {kgWater/kgDryAir}
  ALL_ST=Office open plan_FL=Building Story 2_SCH=A 4 DSOA Space List, !- Design Specification Outdoor Air Object Name
  1.3,                                    !- Zone Heating Sizing Factor
  1.1,                                    !- Zone Cooling Sizing Factor
  DesignDay,                              !- Cooling Design Air Flow Method
  0,                                      !- Cooling Design Air Flow Rate {m3/s}
  0.000762,                               !- Cooling Minimum Air Flow per Zone Floor Area {m3/s-m2}
  0,                                      !- Cooling Minimum Air Flow {m3/s}
  0,                                      !- Cooling Minimum Air Flow Fraction
  DesignDay,                              !- Heating Design Air Flow Method
  0,                                      !- Heating Design Air Flow Rate {m3/s}
  0.002032,                               !- Heating Maximum Air Flow per Zone Floor Area {m3/s-m2}
  0.1415762,                              !- Heating Maximum Air Flow {m3/s}
  0.3,                                    !- Heating Maximum Air Flow Fraction
  ,                                       !- Design Specification Zone Air Distribution Object Name
  No,                                     !- Account for Dedicated Outdoor Air System
  ,                                       !- Dedicated Outdoor Air System Control Strategy
  ,                                       !- Dedicated Outdoor Air Low Setpoint Temperature for Design {C}
  ,                                       !- Dedicated Outdoor Air High Setpoint Temperature for Design {C}
  Sensible Load Only No Latent Load,      !- Zone Load Sizing Method
  HumidityRatioDifference,                !- Zone Latent Cooling Design Supply Air Humidity Ratio Input Method
  ,                                       !- Zone Dehumidification Design Supply Air Humidity Ratio {kgWater/kgDryAir}
  0.005,                                  !- Zone Cooling Design Supply Air Humidity Ratio Difference {kgWater/kgDryAir}
  HumidityRatioDifference,                !- Zone Latent Heating Design Supply Air Humidity Ratio Input Method
  ,                                       !- Zone Humidification Design Supply Air Humidity Ratio {kgWater/kgDryAir}
  0.005,                                  !- Zone Humidification Design Supply Air Humidity Ratio Difference {kgWater/kgDryAir}
  ,                                       !- Zone Humidistat Dehumidification Set Point Schedule Name
  ,                                       !- Zone Humidistat Humidification Set Point Schedule Name
  Coincident;                             !- Type of Space Sum to Use

DesignSpecification:OutdoorAir:SpaceList,
  ALL_ST=Office open plan_FL=Building Story 2_SCH=A 4 DSOA Space List, !- Name
  Perimeter_mid_ZN_2,                     !- Space Name 1
  Space Function Office open plan Ventilation; !- Space Design Specification Outdoor Air Object Name 1

Zone,
  ALL_ST=Office open plan_FL=Building Story 3_SCH=A, !- Name
  0,                                      !- Direction of Relative North {deg}
  0,                                      !- X Origin {m}
  0,                                      !- Y Origin {m}
  0,                                      !- Z Origin {m}
  ,                                       !- Type
  1,                                      !- Multiplier
  ,                                       !- Ceiling Height {m}
  ,                                       !- Volume {m3}
  ,                                       !- Floor Area {m2}
  ,                                       !- Zone Inside Convection Algorithm
  ,                                       !- Zone Outside Convection Algorithm
  Yes;                                    !- Part of Total Floor Area

Space,
  Perimeter_top_ZN_1,                     !- Name
  ALL_ST=Office open plan_FL=Building Story 3_SCH=A, !- Zone Name
  ,                                       !- Ceiling Height {m}
  568.769988336336,                       !- Volume {m3}
  ,                                       !- Floor Area {m2}
  Space Function Office open plan;        !- Space Type

BuildingSurface:Detailed,
  Perimeter_top_ZN_1_Ceiling,             !- Name
  Ceiling,                                !- Surface Type
  BTAP-Int-Ceiling,                       !- Construction Name
  ALL_ST=Office open plan_FL=Building Story 3_SCH=A, !- Zone Name
  Perimeter_top_ZN_1,                     !- Space Name
  Surface,                                !- Outside Boundary Condition
  TopFloor_Plenum_Floor_1,                !- Outside Boundary Condition Object
  NoSun,                                  !- Sun Exposure
  NoWind,                                 !- Wind Exposure
  ,                                       !- View Factor to Ground
  ,                                       !- Number of Vertices
  49.911, 0, 10.668,                      !- X,Y,Z Vertex 1 {m}
  45.3375, 4.5732, 10.668,                !- X,Y,Z Vertex 2 {m}
  4.5732, 4.5732, 10.668,                 !- X,Y,Z Vertex 3 {m}
  0, 0, 10.668;                           !- X,Y,Z Vertex 4 {m}

BuildingSurface:Detailed,
  Perimeter_top_ZN_1_Floor,               !- Name
  Floor,                                  !- Surface Type
  BTAP-Int-Floor,                         !- Construction Name
  ALL_ST=Office open plan_FL=Building Story 3_SCH=A, !- Zone Name
  Perimeter_top_ZN_1,                     !- Space Name
  Surface,                                !- Outside Boundary Condition
  MidFloor_Plenum_Ceiling_1,              !- Outside Boundary Condition Object
  NoSun,                                  !- Sun Exposure
  NoWind,                                 !- Wind Exposure
  ,                                       !- View Factor to Ground
  ,                                       !- Number of Vertices
  45.3375, 4.5732, 7.9248,                !- X,Y,Z Vertex 1 {m}
  49.911, 0, 7.9248,                      !- X,Y,Z Vertex 2 {m}
  0, 0, 7.9248,                           !- X,Y,Z Vertex 3 {m}
  4.5732, 4.5732, 7.9248;                 !- X,Y,Z Vertex 4 {m}

BuildingSurface:Detailed,
  Perimeter_top_ZN_1_Wall_East,           !- Name
  Wall,                                   !- Surface Type
  BTAP-Int-Wall,                          !- Construction Name
  ALL_ST=Office open plan_FL=Building Story 3_SCH=A, !- Zone Name
  Perimeter_top_ZN_1,                     !- Space Name
  Surface,                                !- Outside Boundary Condition
  Perimeter_top_ZN_2_Wall_South,          !- Outside Boundary Condition Object
  NoSun,                                  !- Sun Exposure
  NoWind,                                 !- Wind Exposure
  ,                                       !- View Factor to Ground
  ,                                       !- Number of Vertices
  49.911, 0, 10.668,                      !- X,Y,Z Vertex 1 {m}
  49.911, 0, 7.9248,                      !- X,Y,Z Vertex 2 {m}
  45.3375, 4.5732, 7.9248,                !- X,Y,Z Vertex 3 {m}
  45.3375, 4.5732, 10.668;                !- X,Y,Z Vertex 4 {m}

BuildingSurface:Detailed,
  Perimeter_top_ZN_1_Wall_North,          !- Name
  Wall,                                   !- Surface Type
  BTAP-Int-Wall,                          !- Construction Name
  ALL_ST=Office open plan_FL=Building Story 3_SCH=A, !- Zone Name
  Perimeter_top_ZN_1,                     !- Space Name
  Surface,                                !- Outside Boundary Condition
  Core_top_ZN_5_Wall_South,               !- Outside Boundary Condition Object
  NoSun,                                  !- Sun Exposure
  NoWind,                                 !- Wind Exposure
  ,                                       !- View Factor to Ground
  ,                                       !- Number of Vertices
  45.3375, 4.5732, 10.668,                !- X,Y,Z Vertex 1 {m}
  45.3375, 4.5732, 7.9248,                !- X,Y,Z Vertex 2 {m}
  4.5732, 4.5732, 7.9248,                 !- X,Y,Z Vertex 3 {m}
  4.5732, 4.5732, 10.668;                 !- X,Y,Z Vertex 4 {m}

BuildingSurface:Detailed,
  Perimeter_top_ZN_1_Wall_South,          !- Name
  Wall,                                   !- Surface Type
  BTAP-Ext-Wall-Mass:U-0.29,              !- Construction Name
  ALL_ST=Office open plan_FL=Building Story 3_SCH=A, !- Zone Name
  Perimeter_top_ZN_1,                     !- Space Name
  Outdoors,                               !- Outside Boundary Condition
  ,                                       !- Outside Boundary Condition Object
  SunExposed,                             !- Sun Exposure
  WindExposed,                            !- Wind Exposure
  ,                                       !- View Factor to Ground
  ,                                       !- Number of Vertices
  0, 0, 10.668,                           !- X,Y,Z Vertex 1 {m}
  0, 0, 7.9248,                           !- X,Y,Z Vertex 2 {m}
  49.911, 0, 7.9248,                      !- X,Y,Z Vertex 3 {m}
  49.911, 0, 10.668;                      !- X,Y,Z Vertex 4 {m}

FenestrationSurface:Detailed,
  Perimeter_top_ZN_1_Wall_South_FixedWindow, !- Name
  Window,                                 !- Surface Type
  BTAP-Ext-FixedWindow:U=0.280 SHGC=0.600, !- Construction Name
  Perimeter_top_ZN_1_Wall_South,          !- Building Surface Name
  ,                                       !- Outside Boundary Condition Object
  ,                                       !- View Factor to Ground
  ,                                       !- Frame and Divider Name
  ,                                       !- Multiplier
  ,                                       !- Number of Vertices
  0.0254, 0, 10.0076235496689,            !- X,Y,Z Vertex 1 {m}
  0.0254, 0, 8.6868,                      !- X,Y,Z Vertex 2 {m}
  49.8856, 0, 8.6868,                     !- X,Y,Z Vertex 3 {m}
  49.8856, 0, 10.0076235496689;           !- X,Y,Z Vertex 4 {m}

BuildingSurface:Detailed,
  Perimeter_top_ZN_1_Wall_West,           !- Name
  Wall,                                   !- Surface Type
  BTAP-Int-Wall,                          !- Construction Name
  ALL_ST=Office open plan_FL=Building Story 3_SCH=A, !- Zone Name
  Perimeter_top_ZN_1,                     !- Space Name
  Surface,                                !- Outside Boundary Condition
  Perimeter_top_ZN_4_Wall_South,          !- Outside Boundary Condition Object
  NoSun,                                  !- Sun Exposure
  NoWind,                                 !- Wind Exposure
  ,                                       !- View Factor to Ground
  ,                                       !- Number of Vertices
  4.5732, 4.5732, 10.668,                 !- X,Y,Z Vertex 1 {m}
  4.5732, 4.5732, 7.9248,                 !- X,Y,Z Vertex 2 {m}
  0, 0, 7.9248,                           !- X,Y,Z Vertex 3 {m}
  0, 0, 10.668;                           !- X,Y,Z Vertex 4 {m}

ZoneInfiltration:DesignFlowRate,
  Perimeter_top_ZN_1 Infiltration,        !- Name
  Perimeter_top_ZN_1,                     !- Zone or ZoneList or Space or SpaceList Name
  Always On Discrete,                     !- Schedule Name
  Flow/ExteriorArea,                      !- Design Flow Rate Calculation Method
  ,                                       !- Design Flow Rate {m3/s}
  ,                                       !- Flow Rate per Floor Area {m3/s-m2}
  0.00471177345157376,                    !- Flow Rate per Exterior Surface Area {m3/s-m2}
  ,                                       !- Air Changes per Hour {1/hr}
  0,                                      !- Constant Term Coefficient
  0,                                      !- Temperature Term Coefficient
  0.224,                                  !- Velocity Term Coefficient
  0;                                      !- Velocity Squared Term Coefficient

ZoneControl:Thermostat,
  ALL_ST=Office open plan_FL=Building Story 3_SCH=A Thermostat, !- Name
  ALL_ST=Office open plan_FL=Building Story 3_SCH=A, !- Zone or ZoneList Name
  ALL_ST=Office open plan_FL=Building Story 3_SCH=A Thermostat Schedule, !- Control Type Schedule Name
  ThermostatSetpoint:DualSetpoint,        !- Control 1 Object Type
  Space Function Office open plan Thermostat 32, !- Control 1 Name
  ,                                       !- Control 2 Object Type
  ,                                       !- Control 2 Name
  ,                                       !- Control 3 Object Type
  ,                                       !- Control 3 Name
  ,                                       !- Control 4 Object Type
  ,                                       !- Control 4 Name
  0;                                      !- Temperature Difference Between Cutout And Setpoint {deltaC}

Schedule:Compact,
  ALL_ST=Office open plan_FL=Building Story 3_SCH=A Thermostat Schedule, !- Name
  ALL_ST=Office open plan_FL=Building Story 3_SCH=A Thermostat Schedule Type Limits, !- Schedule Type Limits Name
  Through: 12/31,                         !- Field 1
  For: AllDays,                           !- Field 2
  Until: 24:00,                           !- Field 3
  4;                                      !- Field 4

ScheduleTypeLimits,
  ALL_ST=Office open plan_FL=Building Story 3_SCH=A Thermostat Schedule Type Limits, !- Name
  0,                                      !- Lower Limit Value {BasedOnField A3}
  4,                                      !- Upper Limit Value {BasedOnField A3}
  DISCRETE;                               !- Numeric Type

ThermostatSetpoint:DualSetpoint,
  Space Function Office open plan Thermostat 32, !- Name
  NECB-A-Thermostat Setpoint-Heating,     !- Heating Setpoint Temperature Schedule Name
  NECB-A-Thermostat Setpoint-Cooling;     !- Cooling Setpoint Temperature Schedule Name

ZoneHVAC:EquipmentConnections,
  ALL_ST=Office open plan_FL=Building Story 3_SCH=A, !- Zone Name
  ALL_ST=Office open plan_FL=Building Story 3_SCH=A Equipment List, !- Zone Conditioning Equipment List Name
  ALL_ST=Office open plan_FL=Building Story 3_SCH=A Inlet Node List, !- Zone Air Inlet Node or NodeList Name
  ,                                       !- Zone Air Exhaust Node or NodeList Name
  ALL_ST=Office open plan_FL=Building Story 3_SCH=A Zone Air Node, !- Zone Air Node Name
  ALL_ST=Office open plan_FL=Building Story 3_SCH=A Return Node List; !- Zone Return Air Node or NodeList Name

NodeList,
  ALL_ST=Office open plan_FL=Building Story 3_SCH=A Inlet Node List, !- Name
  Air Terminal Single Duct VAV Reheat 11 Outlet Air Node; !- Node Name 1

NodeList,
  ALL_ST=Office open plan_FL=Building Story 3_SCH=A Return Node List, !- Name
  ALL_ST=Office open plan_FL=Building Story 3_SCH=A Return Air Node; !- Node Name 1

ZoneHVAC:AirDistributionUnit,
  ADU Air Terminal Single Duct VAV Reheat 11, !- Name
  Air Terminal Single Duct VAV Reheat 11 Outlet Air Node, !- Air Distribution Unit Outlet Node Name
  AirTerminal:SingleDuct:VAV:Reheat,      !- Air Terminal Object Type
  Air Terminal Single Duct VAV Reheat 11; !- Air Terminal Name

AirTerminal:SingleDuct:VAV:Reheat,
  Air Terminal Single Duct VAV Reheat 11, !- Name
  Always On Discrete,                     !- Availability Schedule Name
  Air Terminal Single Duct VAV Reheat 11 Damper Outlet, !- Damper Air Outlet Node Name
  Air Terminal Single Duct VAV Reheat 11 Inlet Air Node, !- Air Inlet Node Name
  Autosize,                               !- Maximum Air Flow Rate {m3/s}
  Constant,                               !- Zone Minimum Air Flow Input Method
  0.3,                                    !- Constant Minimum Air Flow Fraction
  0,                                      !- Fixed Minimum Air Flow Rate {m3/s}
  ,                                       !- Minimum Air Flow Fraction Schedule Name
  Coil:Heating:Electric,                  !- Reheat Coil Object Type
  Coil Heating Electric 11,               !- Reheat Coil Name
  Autosize,                               !- Maximum Hot Water or Steam Flow Rate {m3/s}
  0,                                      !- Minimum Hot Water or Steam Flow Rate {m3/s}
  Air Terminal Single Duct VAV Reheat 11 Outlet Air Node, !- Air Outlet Node Name
  0.001,                                  !- Convergence Tolerance
  Normal,                                 !- Damper Heating Action
  Autocalculate,                          !- Maximum Flow per Zone Floor Area During Reheat {m3/s-m2}
  0.5,                                    !- Maximum Flow Fraction During Reheat
  43;                                     !- Maximum Reheat Air Temperature {C}

Coil:Heating:Electric,
  Coil Heating Electric 11,               !- Name
  Always On Discrete,                     !- Availability Schedule Name
  1,                                      !- Efficiency
  19463.3025169373,                       !- Nominal Capacity {W}
  Air Terminal Single Duct VAV Reheat 11 Damper Outlet, !- Air Inlet Node Name
  Air Terminal Single Duct VAV Reheat 11 Outlet Air Node; !- Air Outlet Node Name

ZoneHVAC:Baseboard:Convective:Electric,
  ZoneHVACBaseboardConvectiveElectric 10, !- Name
  Always On Discrete,                     !- Availability Schedule Name
  ,                                       !- Heating Design Capacity Method
  Autosize,                               !- Heating Design Capacity {W}
  ,                                       !- Heating Design Capacity Per Floor Area {W/m2}
  ,                                       !- Fraction of Autosized Heating Design Capacity
  1;                                      !- Efficiency

ZoneHVAC:EquipmentList,
  ALL_ST=Office open plan_FL=Building Story 3_SCH=A Equipment List, !- Name
  SequentialLoad,                         !- Load Distribution Scheme
  ZoneHVAC:AirDistributionUnit,           !- Zone Equipment Object Type 1
  ADU Air Terminal Single Duct VAV Reheat 11, !- Zone Equipment Name 1
  1,                                      !- Zone Equipment Cooling Sequence 1
  1,                                      !- Zone Equipment Heating or No-Load Sequence 1
  ,                                       !- Zone Equipment Sequential Cooling Fraction Schedule Name 1
  ,                                       !- Zone Equipment Sequential Heating Fraction Schedule Name 1
  ZoneHVAC:Baseboard:Convective:Electric, !- Zone Equipment Object Type 2
  ZoneHVACBaseboardConvectiveElectric 10, !- Zone Equipment Name 2
  2,                                      !- Zone Equipment Cooling Sequence 2
  2,                                      !- Zone Equipment Heating or No-Load Sequence 2
  ,                                       !- Zone Equipment Sequential Cooling Fraction Schedule Name 2
  ;                                       !- Zone Equipment Sequential Heating Fraction Schedule Name 2

Sizing:Zone,
  ALL_ST=Office open plan_FL=Building Story 3_SCH=A, !- Zone or ZoneList Name
  TemperatureDifference,                  !- Zone Cooling Design Supply Air Temperature Input Method
  13,                                     !- Zone Cooling Design Supply Air Temperature {C}
  11,                                     !- Zone Cooling Design Supply Air Temperature Difference {deltaC}
  TemperatureDifference,                  !- Zone Heating Design Supply Air Temperature Input Method
  43,                                     !- Zone Heating Design Supply Air Temperature {C}
  21,                                     !- Zone Heating Design Supply Air Temperature Difference {deltaC}
  0.0085,                                 !- Zone Cooling Design Supply Air Humidity Ratio {kgWater/kgDryAir}
  0.008,                                  !- Zone Heating Design Supply Air Humidity Ratio {kgWater/kgDryAir}
  ALL_ST=Office open plan_FL=Building Story 3_SCH=A DSOA Space List, !- Design Specification Outdoor Air Object Name
  1.3,                                    !- Zone Heating Sizing Factor
  1.1,                                    !- Zone Cooling Sizing Factor
  DesignDay,                              !- Cooling Design Air Flow Method
  0,                                      !- Cooling Design Air Flow Rate {m3/s}
  0.000762,                               !- Cooling Minimum Air Flow per Zone Floor Area {m3/s-m2}
  0,                                      !- Cooling Minimum Air Flow {m3/s}
  0,                                      !- Cooling Minimum Air Flow Fraction
  DesignDay,                              !- Heating Design Air Flow Method
  0,                                      !- Heating Design Air Flow Rate {m3/s}
  0.002032,                               !- Heating Maximum Air Flow per Zone Floor Area {m3/s-m2}
  0.1415762,                              !- Heating Maximum Air Flow {m3/s}
  0.3,                                    !- Heating Maximum Air Flow Fraction
  ,                                       !- Design Specification Zone Air Distribution Object Name
  No,                                     !- Account for Dedicated Outdoor Air System
  ,                                       !- Dedicated Outdoor Air System Control Strategy
  ,                                       !- Dedicated Outdoor Air Low Setpoint Temperature for Design {C}
  ,                                       !- Dedicated Outdoor Air High Setpoint Temperature for Design {C}
  Sensible Load Only No Latent Load,      !- Zone Load Sizing Method
  HumidityRatioDifference,                !- Zone Latent Cooling Design Supply Air Humidity Ratio Input Method
  ,                                       !- Zone Dehumidification Design Supply Air Humidity Ratio {kgWater/kgDryAir}
  0.005,                                  !- Zone Cooling Design Supply Air Humidity Ratio Difference {kgWater/kgDryAir}
  HumidityRatioDifference,                !- Zone Latent Heating Design Supply Air Humidity Ratio Input Method
  ,                                       !- Zone Humidification Design Supply Air Humidity Ratio {kgWater/kgDryAir}
  0.005,                                  !- Zone Humidification Design Supply Air Humidity Ratio Difference {kgWater/kgDryAir}
  ,                                       !- Zone Humidistat Dehumidification Set Point Schedule Name
  ,                                       !- Zone Humidistat Humidification Set Point Schedule Name
  Coincident;                             !- Type of Space Sum to Use

Schedule:Day:Interval,
  Schedule Day 12,                        !- Name
  Fractional,                             !- Schedule Type Limits Name
  No,                                     !- Interpolate to Timestep
  24:00,                                  !- Time 1 {hh:mm}
  0;                                      !- Value Until Time 1

Schedule:Day:Interval,
  sys_6|mixed|shr>none|sc>ccashp|sh>ccashp|ssf>vv|zh>b-e|zc>none|srf>vv| 2 Occ Sch Default, !- Name
  Fractional,                             !- Schedule Type Limits Name
  No,                                     !- Interpolate to Timestep
  08:00,                                  !- Time 1 {hh:mm}
  0,                                      !- Value Until Time 1
  19:00,                                  !- Time 2 {hh:mm}
  1,                                      !- Value Until Time 2
  24:00,                                  !- Time 3 {hh:mm}
  0;                                      !- Value Until Time 3

Schedule:Day:Interval,
  Schedule Day 11,                        !- Name
  Fractional,                             !- Schedule Type Limits Name
  No,                                     !- Interpolate to Timestep
  24:00,                                  !- Time 1 {hh:mm}
  0;                                      !- Value Until Time 1

Schedule:Week:Daily,
  sys_6|mixed|shr>none|sc>ccashp|sh>ccashp|ssf>vv|zh>b-e|zc>none|srf>vv| 2 Occ Sch Week Rule - Jan1-Dec31, !- Name
  Schedule Day 12,                        !- Sunday Schedule:Day Name
  sys_6|mixed|shr>none|sc>ccashp|sh>ccashp|ssf>vv|zh>b-e|zc>none|srf>vv| 2 Occ Sch Default, !- Monday Schedule:Day Name
  sys_6|mixed|shr>none|sc>ccashp|sh>ccashp|ssf>vv|zh>b-e|zc>none|srf>vv| 2 Occ Sch Default, !- Tuesday Schedule:Day Name
  sys_6|mixed|shr>none|sc>ccashp|sh>ccashp|ssf>vv|zh>b-e|zc>none|srf>vv| 2 Occ Sch Default, !- Wednesday Schedule:Day Name
  sys_6|mixed|shr>none|sc>ccashp|sh>ccashp|ssf>vv|zh>b-e|zc>none|srf>vv| 2 Occ Sch Default, !- Thursday Schedule:Day Name
  sys_6|mixed|shr>none|sc>ccashp|sh>ccashp|ssf>vv|zh>b-e|zc>none|srf>vv| 2 Occ Sch Default, !- Friday Schedule:Day Name
  Schedule Day 11,                        !- Saturday Schedule:Day Name
  sys_6|mixed|shr>none|sc>ccashp|sh>ccashp|ssf>vv|zh>b-e|zc>none|srf>vv| 2 Occ Sch Default, !- Holiday Schedule:Day Name
  sys_6|mixed|shr>none|sc>ccashp|sh>ccashp|ssf>vv|zh>b-e|zc>none|srf>vv| 2 Occ Sch Summer Design Day, !- SummerDesignDay Schedule:Day Name
  sys_6|mixed|shr>none|sc>ccashp|sh>ccashp|ssf>vv|zh>b-e|zc>none|srf>vv| 2 Occ Sch Winter Design Day, !- WinterDesignDay Schedule:Day Name
  sys_6|mixed|shr>none|sc>ccashp|sh>ccashp|ssf>vv|zh>b-e|zc>none|srf>vv| 2 Occ Sch Default, !- CustomDay1 Schedule:Day Name
  sys_6|mixed|shr>none|sc>ccashp|sh>ccashp|ssf>vv|zh>b-e|zc>none|srf>vv| 2 Occ Sch Default; !- CustomDay2 Schedule:Day Name

Schedule:Year,
  sys_6|mixed|shr>none|sc>ccashp|sh>ccashp|ssf>vv|zh>b-e|zc>none|srf>vv| 2 Occ Sch, !- Name
  Fractional,                             !- Schedule Type Limits Name
  sys_6|mixed|shr>none|sc>ccashp|sh>ccashp|ssf>vv|zh>b-e|zc>none|srf>vv| 2 Occ Sch Week Rule - Jan1-Dec31, !- Schedule:Week Name 1
  1,                                      !- Start Month 1
  1,                                      !- Start Day 1
  12,                                     !- End Month 1
  31;                                     !- End Day 1

Schedule:Day:Interval,
  sys_6|mixed|shr>none|sc>ccashp|sh>ccashp|ssf>vv|zh>b-e|zc>none|srf>vv| 2 Occ Sch Summer Design Day, !- Name
  Fractional,                             !- Schedule Type Limits Name
  No,                                     !- Interpolate to Timestep
  24:00,                                  !- Time 1 {hh:mm}
  1;                                      !- Value Until Time 1

Schedule:Day:Interval,
  sys_6|mixed|shr>none|sc>ccashp|sh>ccashp|ssf>vv|zh>b-e|zc>none|srf>vv| 2 Occ Sch Winter Design Day, !- Name
  Fractional,                             !- Schedule Type Limits Name
  No,                                     !- Interpolate to Timestep
  24:00,                                  !- Time 1 {hh:mm}
  1;                                      !- Value Until Time 1

Controller:MechanicalVentilation,
  Controller Mechanical Ventilation 3,    !- Name
  sys_6|mixed|shr>none|sc>ccashp|sh>ccashp|ssf>vv|zh>b-e|zc>none|srf>vv| 2 Occ Sch, !- Availability Schedule Name
  No,                                     !- Demand Controlled Ventilation
  ZoneSum,                                !- System Outdoor Air Method
  ,                                       !- Zone Maximum Outdoor Air Fraction {dimensionless}
  ALL_ST=Office open plan_FL=Building Story 3_SCH=A, !- Zone or ZoneList Name 1
  Space Function Office open plan Ventilation, !- Design Specification Outdoor Air Object Name 1
  ,                                       !- Design Specification Zone Air Distribution Object Name 1
  ALL_ST=Office open plan_FL=Building Story 3_SCH=A 1, !- Zone or ZoneList Name 2
  Space Function Office open plan Ventilation, !- Design Specification Outdoor Air Object Name 2
  ,                                       !- Design Specification Zone Air Distribution Object Name 2
  ALL_ST=Office open plan_FL=Building Story 3_SCH=A 2, !- Zone or ZoneList Name 3
  Space Function Office open plan Ventilation, !- Design Specification Outdoor Air Object Name 3
  ,                                       !- Design Specification Zone Air Distribution Object Name 3
  ALL_ST=Office open plan_FL=Building Story 3_SCH=A 3, !- Zone or ZoneList Name 4
  Space Function Office open plan Ventilation, !- Design Specification Outdoor Air Object Name 4
  ,                                       !- Design Specification Zone Air Distribution Object Name 4
  ALL_ST=Office open plan_FL=Building Story 3_SCH=A 4, !- Zone or ZoneList Name 5
  Space Function Office open plan Ventilation, !- Design Specification Outdoor Air Object Name 5
  ;                                       !- Design Specification Zone Air Distribution Object Name 5

DesignSpecification:OutdoorAir:SpaceList,
  ALL_ST=Office open plan_FL=Building Story 3_SCH=A DSOA Space List, !- Name
  Perimeter_top_ZN_1,                     !- Space Name 1
  Space Function Office open plan Ventilation; !- Space Design Specification Outdoor Air Object Name 1

Zone,
  ALL_ST=Office open plan_FL=Building Story 3_SCH=A 1, !- Name
  0,                                      !- Direction of Relative North {deg}
  0,                                      !- X Origin {m}
  0,                                      !- Y Origin {m}
  0,                                      !- Z Origin {m}
  ,                                       !- Type
  1,                                      !- Multiplier
  ,                                       !- Ceiling Height {m}
  ,                                       !- Volume {m3}
  ,                                       !- Floor Area {m2}
  ,                                       !- Zone Inside Convection Algorithm
  ,                                       !- Zone Outside Convection Algorithm
  Yes;                                    !- Part of Total Floor Area

Space,
  Perimeter_top_ZN_2,                     !- Name
  ALL_ST=Office open plan_FL=Building Story 3_SCH=A 1, !- Zone Name
  ,                                       !- Ceiling Height {m}
  360.07845085512,                        !- Volume {m3}
  ,                                       !- Floor Area {m2}
  Space Function Office open plan;        !- Space Type

BuildingSurface:Detailed,
  Perimeter_top_ZN_2_Ceiling,             !- Name
  Ceiling,                                !- Surface Type
  BTAP-Int-Ceiling,                       !- Construction Name
  ALL_ST=Office open plan_FL=Building Story 3_SCH=A 1, !- Zone Name
  Perimeter_top_ZN_2,                     !- Space Name
  Surface,                                !- Outside Boundary Condition
  TopFloor_Plenum_Floor_2,                !- Outside Boundary Condition Object
  NoSun,                                  !- Sun Exposure
  NoWind,                                 !- Wind Exposure
  ,                                       !- View Factor to Ground
  ,                                       !- Number of Vertices
  49.911, 0, 10.668,                      !- X,Y,Z Vertex 1 {m}
  49.911, 33.2738, 10.668,                !- X,Y,Z Vertex 2 {m}
  45.3375, 28.7006, 10.668,               !- X,Y,Z Vertex 3 {m}
  45.3375, 4.5732, 10.668;                !- X,Y,Z Vertex 4 {m}

BuildingSurface:Detailed,
  Perimeter_top_ZN_2_Floor,               !- Name
  Floor,                                  !- Surface Type
  BTAP-Int-Floor,                         !- Construction Name
  ALL_ST=Office open plan_FL=Building Story 3_SCH=A 1, !- Zone Name
  Perimeter_top_ZN_2,                     !- Space Name
  Surface,                                !- Outside Boundary Condition
  MidFloor_Plenum_Ceiling_2,              !- Outside Boundary Condition Object
  NoSun,                                  !- Sun Exposure
  NoWind,                                 !- Wind Exposure
  ,                                       !- View Factor to Ground
  ,                                       !- Number of Vertices
  49.911, 33.2738, 7.9248,                !- X,Y,Z Vertex 1 {m}
  49.911, 0, 7.9248,                      !- X,Y,Z Vertex 2 {m}
  45.3375, 4.5732, 7.9248,                !- X,Y,Z Vertex 3 {m}
  45.3375, 28.7006, 7.9248;               !- X,Y,Z Vertex 4 {m}

BuildingSurface:Detailed,
  Perimeter_top_ZN_2_Wall_East,           !- Name
  Wall,                                   !- Surface Type
  BTAP-Ext-Wall-Mass:U-0.29,              !- Construction Name
  ALL_ST=Office open plan_FL=Building Story 3_SCH=A 1, !- Zone Name
  Perimeter_top_ZN_2,                     !- Space Name
  Outdoors,                               !- Outside Boundary Condition
  ,                                       !- Outside Boundary Condition Object
  SunExposed,                             !- Sun Exposure
  WindExposed,                            !- Wind Exposure
  ,                                       !- View Factor to Ground
  ,                                       !- Number of Vertices
  49.911, 0, 10.668,                      !- X,Y,Z Vertex 1 {m}
  49.911, 0, 7.9248,                      !- X,Y,Z Vertex 2 {m}
  49.911, 33.2738, 7.9248,                !- X,Y,Z Vertex 3 {m}
  49.911, 33.2738, 10.668;                !- X,Y,Z Vertex 4 {m}

FenestrationSurface:Detailed,
  Perimeter_top_ZN_2_Wall_East_FixedWindow, !- Name
  Window,                                 !- Surface Type
  BTAP-Ext-FixedWindow:U=0.280 SHGC=0.600, !- Construction Name
  Perimeter_top_ZN_2_Wall_East,           !- Building Surface Name
  ,                                       !- Outside Boundary Condition Object
  ,                                       !- View Factor to Ground
  ,                                       !- Frame and Divider Name
  ,                                       !- Multiplier
  ,                                       !- Number of Vertices
  49.911, 0.0254, 10.0082967644391,       !- X,Y,Z Vertex 1 {m}
  49.911, 0.0254, 8.6868,                 !- X,Y,Z Vertex 2 {m}
  49.911, 33.2484, 8.6868,                !- X,Y,Z Vertex 3 {m}
  49.911, 33.2484, 10.0082967644391;      !- X,Y,Z Vertex 4 {m}

BuildingSurface:Detailed,
  Perimeter_top_ZN_2_Wall_North,          !- Name
  Wall,                                   !- Surface Type
  BTAP-Int-Wall,                          !- Construction Name
  ALL_ST=Office open plan_FL=Building Story 3_SCH=A 1, !- Zone Name
  Perimeter_top_ZN_2,                     !- Space Name
  Surface,                                !- Outside Boundary Condition
  Perimeter_top_ZN_3_Wall_East,           !- Outside Boundary Condition Object
  NoSun,                                  !- Sun Exposure
  NoWind,                                 !- Wind Exposure
  ,                                       !- View Factor to Ground
  ,                                       !- Number of Vertices
  49.911, 33.2738, 10.668,                !- X,Y,Z Vertex 1 {m}
  49.911, 33.2738, 7.9248,                !- X,Y,Z Vertex 2 {m}
  45.3375, 28.7006, 7.9248,               !- X,Y,Z Vertex 3 {m}
  45.3375, 28.7006, 10.668;               !- X,Y,Z Vertex 4 {m}

BuildingSurface:Detailed,
  Perimeter_top_ZN_2_Wall_South,          !- Name
  Wall,                                   !- Surface Type
  BTAP-Int-Wall,                          !- Construction Name
  ALL_ST=Office open plan_FL=Building Story 3_SCH=A 1, !- Zone Name
  Perimeter_top_ZN_2,                     !- Space Name
  Surface,                                !- Outside Boundary Condition
  Perimeter_top_ZN_1_Wall_East,           !- Outside Boundary Condition Object
  NoSun,                                  !- Sun Exposure
  NoWind,                                 !- Wind Exposure
  ,                                       !- View Factor to Ground
  ,                                       !- Number of Vertices
  45.3375, 4.5732, 10.668,                !- X,Y,Z Vertex 1 {m}
  45.3375, 4.5732, 7.9248,                !- X,Y,Z Vertex 2 {m}
  49.911, 0, 7.9248,                      !- X,Y,Z Vertex 3 {m}
  49.911, 0, 10.668;                      !- X,Y,Z Vertex 4 {m}

BuildingSurface:Detailed,
  Perimeter_top_ZN_2_Wall_West,           !- Name
  Wall,                                   !- Surface Type
  BTAP-Int-Wall,                          !- Construction Name
  ALL_ST=Office open plan_FL=Building Story 3_SCH=A 1, !- Zone Name
  Perimeter_top_ZN_2,                     !- Space Name
  Surface,                                !- Outside Boundary Condition
  Core_top_ZN_5_Wall_East,                !- Outside Boundary Condition Object
  NoSun,                                  !- Sun Exposure
  NoWind,                                 !- Wind Exposure
  ,                                       !- View Factor to Ground
  ,                                       !- Number of Vertices
  45.3375, 28.7006, 10.668,               !- X,Y,Z Vertex 1 {m}
  45.3375, 28.7006, 7.9248,               !- X,Y,Z Vertex 2 {m}
  45.3375, 4.5732, 7.9248,                !- X,Y,Z Vertex 3 {m}
  45.3375, 4.5732, 10.668;                !- X,Y,Z Vertex 4 {m}

ZoneInfiltration:DesignFlowRate,
  Perimeter_top_ZN_2 Infiltration,        !- Name
  Perimeter_top_ZN_2,                     !- Zone or ZoneList or Space or SpaceList Name
  Always On Discrete,                     !- Schedule Name
  Flow/ExteriorArea,                      !- Design Flow Rate Calculation Method
  ,                                       !- Design Flow Rate {m3/s}
  ,                                       !- Flow Rate per Floor Area {m3/s-m2}
  0.00471177345157376,                    !- Flow Rate per Exterior Surface Area {m3/s-m2}
  ,                                       !- Air Changes per Hour {1/hr}
  0,                                      !- Constant Term Coefficient
  0,                                      !- Temperature Term Coefficient
  0.224,                                  !- Velocity Term Coefficient
  0;                                      !- Velocity Squared Term Coefficient

ZoneControl:Thermostat,
  ALL_ST=Office open plan_FL=Building Story 3_SCH=A 1 Thermostat, !- Name
  ALL_ST=Office open plan_FL=Building Story 3_SCH=A 1, !- Zone or ZoneList Name
  ALL_ST=Office open plan_FL=Building Story 3_SCH=A 1 Thermostat Schedule, !- Control Type Schedule Name
  ThermostatSetpoint:DualSetpoint,        !- Control 1 Object Type
  Space Function Office open plan Thermostat 33, !- Control 1 Name
  ,                                       !- Control 2 Object Type
  ,                                       !- Control 2 Name
  ,                                       !- Control 3 Object Type
  ,                                       !- Control 3 Name
  ,                                       !- Control 4 Object Type
  ,                                       !- Control 4 Name
  0;                                      !- Temperature Difference Between Cutout And Setpoint {deltaC}

Schedule:Compact,
  ALL_ST=Office open plan_FL=Building Story 3_SCH=A 1 Thermostat Schedule, !- Name
  ALL_ST=Office open plan_FL=Building Story 3_SCH=A 1 Thermostat Schedule Type Limits, !- Schedule Type Limits Name
  Through: 12/31,                         !- Field 1
  For: AllDays,                           !- Field 2
  Until: 24:00,                           !- Field 3
  4;                                      !- Field 4

ScheduleTypeLimits,
  ALL_ST=Office open plan_FL=Building Story 3_SCH=A 1 Thermostat Schedule Type Limits, !- Name
  0,                                      !- Lower Limit Value {BasedOnField A3}
  4,                                      !- Upper Limit Value {BasedOnField A3}
  DISCRETE;                               !- Numeric Type

ThermostatSetpoint:DualSetpoint,
  Space Function Office open plan Thermostat 33, !- Name
  NECB-A-Thermostat Setpoint-Heating,     !- Heating Setpoint Temperature Schedule Name
  NECB-A-Thermostat Setpoint-Cooling;     !- Cooling Setpoint Temperature Schedule Name

ZoneHVAC:EquipmentConnections,
  ALL_ST=Office open plan_FL=Building Story 3_SCH=A 1, !- Zone Name
  ALL_ST=Office open plan_FL=Building Story 3_SCH=A 1 Equipment List, !- Zone Conditioning Equipment List Name
  ALL_ST=Office open plan_FL=Building Story 3_SCH=A 1 Inlet Node List, !- Zone Air Inlet Node or NodeList Name
  ,                                       !- Zone Air Exhaust Node or NodeList Name
  ALL_ST=Office open plan_FL=Building Story 3_SCH=A 1 Zone Air Node, !- Zone Air Node Name
  ALL_ST=Office open plan_FL=Building Story 3_SCH=A 1 Return Node List; !- Zone Return Air Node or NodeList Name

NodeList,
  ALL_ST=Office open plan_FL=Building Story 3_SCH=A 1 Inlet Node List, !- Name
  Air Terminal Single Duct VAV Reheat 12 Outlet Air Node; !- Node Name 1

NodeList,
  ALL_ST=Office open plan_FL=Building Story 3_SCH=A 1 Return Node List, !- Name
  ALL_ST=Office open plan_FL=Building Story 3_SCH=A 1 Return Air Node; !- Node Name 1

ZoneHVAC:AirDistributionUnit,
  ADU Air Terminal Single Duct VAV Reheat 12, !- Name
  Air Terminal Single Duct VAV Reheat 12 Outlet Air Node, !- Air Distribution Unit Outlet Node Name
  AirTerminal:SingleDuct:VAV:Reheat,      !- Air Terminal Object Type
  Air Terminal Single Duct VAV Reheat 12; !- Air Terminal Name

AirTerminal:SingleDuct:VAV:Reheat,
  Air Terminal Single Duct VAV Reheat 12, !- Name
  Always On Discrete,                     !- Availability Schedule Name
  Air Terminal Single Duct VAV Reheat 12 Damper Outlet, !- Damper Air Outlet Node Name
  Air Terminal Single Duct VAV Reheat 12 Inlet Air Node, !- Air Inlet Node Name
  Autosize,                               !- Maximum Air Flow Rate {m3/s}
  Constant,                               !- Zone Minimum Air Flow Input Method
  0.3,                                    !- Constant Minimum Air Flow Fraction
  0,                                      !- Fixed Minimum Air Flow Rate {m3/s}
  ,                                       !- Minimum Air Flow Fraction Schedule Name
  Coil:Heating:Electric,                  !- Reheat Coil Object Type
  Coil Heating Electric 12,               !- Reheat Coil Name
  Autosize,                               !- Maximum Hot Water or Steam Flow Rate {m3/s}
  0,                                      !- Minimum Hot Water or Steam Flow Rate {m3/s}
  Air Terminal Single Duct VAV Reheat 12 Outlet Air Node, !- Air Outlet Node Name
  0.001,                                  !- Convergence Tolerance
  Normal,                                 !- Damper Heating Action
  Autocalculate,                          !- Maximum Flow per Zone Floor Area During Reheat {m3/s-m2}
  0.5,                                    !- Maximum Flow Fraction During Reheat
  43;                                     !- Maximum Reheat Air Temperature {C}

Coil:Heating:Electric,
  Coil Heating Electric 12,               !- Name
  Always On Discrete,                     !- Availability Schedule Name
  1,                                      !- Efficiency
  12709.0564727783,                       !- Nominal Capacity {W}
  Air Terminal Single Duct VAV Reheat 12 Damper Outlet, !- Air Inlet Node Name
  Air Terminal Single Duct VAV Reheat 12 Outlet Air Node; !- Air Outlet Node Name

ZoneHVAC:Baseboard:Convective:Electric,
  ZoneHVACBaseboardConvectiveElectric 11, !- Name
  Always On Discrete,                     !- Availability Schedule Name
  ,                                       !- Heating Design Capacity Method
  Autosize,                               !- Heating Design Capacity {W}
  ,                                       !- Heating Design Capacity Per Floor Area {W/m2}
  ,                                       !- Fraction of Autosized Heating Design Capacity
  1;                                      !- Efficiency

ZoneHVAC:EquipmentList,
  ALL_ST=Office open plan_FL=Building Story 3_SCH=A 1 Equipment List, !- Name
  SequentialLoad,                         !- Load Distribution Scheme
  ZoneHVAC:AirDistributionUnit,           !- Zone Equipment Object Type 1
  ADU Air Terminal Single Duct VAV Reheat 12, !- Zone Equipment Name 1
  1,                                      !- Zone Equipment Cooling Sequence 1
  1,                                      !- Zone Equipment Heating or No-Load Sequence 1
  ,                                       !- Zone Equipment Sequential Cooling Fraction Schedule Name 1
  ,                                       !- Zone Equipment Sequential Heating Fraction Schedule Name 1
  ZoneHVAC:Baseboard:Convective:Electric, !- Zone Equipment Object Type 2
  ZoneHVACBaseboardConvectiveElectric 11, !- Zone Equipment Name 2
  2,                                      !- Zone Equipment Cooling Sequence 2
  2,                                      !- Zone Equipment Heating or No-Load Sequence 2
  ,                                       !- Zone Equipment Sequential Cooling Fraction Schedule Name 2
  ;                                       !- Zone Equipment Sequential Heating Fraction Schedule Name 2

Sizing:Zone,
  ALL_ST=Office open plan_FL=Building Story 3_SCH=A 1, !- Zone or ZoneList Name
  TemperatureDifference,                  !- Zone Cooling Design Supply Air Temperature Input Method
  13,                                     !- Zone Cooling Design Supply Air Temperature {C}
  11,                                     !- Zone Cooling Design Supply Air Temperature Difference {deltaC}
  TemperatureDifference,                  !- Zone Heating Design Supply Air Temperature Input Method
  43,                                     !- Zone Heating Design Supply Air Temperature {C}
  21,                                     !- Zone Heating Design Supply Air Temperature Difference {deltaC}
  0.0085,                                 !- Zone Cooling Design Supply Air Humidity Ratio {kgWater/kgDryAir}
  0.008,                                  !- Zone Heating Design Supply Air Humidity Ratio {kgWater/kgDryAir}
  ALL_ST=Office open plan_FL=Building Story 3_SCH=A 1 DSOA Space List, !- Design Specification Outdoor Air Object Name
  1.3,                                    !- Zone Heating Sizing Factor
  1.1,                                    !- Zone Cooling Sizing Factor
  DesignDay,                              !- Cooling Design Air Flow Method
  0,                                      !- Cooling Design Air Flow Rate {m3/s}
  0.000762,                               !- Cooling Minimum Air Flow per Zone Floor Area {m3/s-m2}
  0,                                      !- Cooling Minimum Air Flow {m3/s}
  0,                                      !- Cooling Minimum Air Flow Fraction
  DesignDay,                              !- Heating Design Air Flow Method
  0,                                      !- Heating Design Air Flow Rate {m3/s}
  0.002032,                               !- Heating Maximum Air Flow per Zone Floor Area {m3/s-m2}
  0.1415762,                              !- Heating Maximum Air Flow {m3/s}
  0.3,                                    !- Heating Maximum Air Flow Fraction
  ,                                       !- Design Specification Zone Air Distribution Object Name
  No,                                     !- Account for Dedicated Outdoor Air System
  ,                                       !- Dedicated Outdoor Air System Control Strategy
  ,                                       !- Dedicated Outdoor Air Low Setpoint Temperature for Design {C}
  ,                                       !- Dedicated Outdoor Air High Setpoint Temperature for Design {C}
  Sensible Load Only No Latent Load,      !- Zone Load Sizing Method
  HumidityRatioDifference,                !- Zone Latent Cooling Design Supply Air Humidity Ratio Input Method
  ,                                       !- Zone Dehumidification Design Supply Air Humidity Ratio {kgWater/kgDryAir}
  0.005,                                  !- Zone Cooling Design Supply Air Humidity Ratio Difference {kgWater/kgDryAir}
  HumidityRatioDifference,                !- Zone Latent Heating Design Supply Air Humidity Ratio Input Method
  ,                                       !- Zone Humidification Design Supply Air Humidity Ratio {kgWater/kgDryAir}
  0.005,                                  !- Zone Humidification Design Supply Air Humidity Ratio Difference {kgWater/kgDryAir}
  ,                                       !- Zone Humidistat Dehumidification Set Point Schedule Name
  ,                                       !- Zone Humidistat Humidification Set Point Schedule Name
  Coincident;                             !- Type of Space Sum to Use

DesignSpecification:OutdoorAir:SpaceList,
  ALL_ST=Office open plan_FL=Building Story 3_SCH=A 1 DSOA Space List, !- Name
  Perimeter_top_ZN_2,                     !- Space Name 1
  Space Function Office open plan Ventilation; !- Space Design Specification Outdoor Air Object Name 1

Zone,
  ALL_ST=Office open plan_FL=Building Story 3_SCH=A 2, !- Name
  0,                                      !- Direction of Relative North {deg}
  0,                                      !- X Origin {m}
  0,                                      !- Y Origin {m}
  0,                                      !- Z Origin {m}
  ,                                       !- Type
  1,                                      !- Multiplier
  ,                                       !- Ceiling Height {m}
  ,                                       !- Volume {m3}
  ,                                       !- Floor Area {m2}
  ,                                       !- Zone Inside Convection Algorithm
  ,                                       !- Zone Outside Convection Algorithm
  Yes;                                    !- Part of Total Floor Area

Space,
  Core_top,                               !- Name
  ALL_ST=Office open plan_FL=Building Story 3_SCH=A 2, !- Zone Name
  ,                                       !- Ceiling Height {m}
  2698.03752381662,                       !- Volume {m3}
  ,                                       !- Floor Area {m2}
  Space Function Office open plan;        !- Space Type

BuildingSurface:Detailed,
  Core_top_ZN_5_Ceiling,                  !- Name
  Ceiling,                                !- Surface Type
  BTAP-Int-Ceiling,                       !- Construction Name
  ALL_ST=Office open plan_FL=Building Story 3_SCH=A 2, !- Zone Name
  Core_top,                               !- Space Name
  Surface,                                !- Outside Boundary Condition
  TopFloor_Plenum_Floor_5,                !- Outside Boundary Condition Object
  NoSun,                                  !- Sun Exposure
  NoWind,                                 !- Wind Exposure
  ,                                       !- View Factor to Ground
  ,                                       !- Number of Vertices
  45.3375, 4.5732, 10.668,                !- X,Y,Z Vertex 1 {m}
  45.3375, 28.7006, 10.668,               !- X,Y,Z Vertex 2 {m}
  4.5732, 28.7006, 10.668,                !- X,Y,Z Vertex 3 {m}
  4.5732, 4.5732, 10.668;                 !- X,Y,Z Vertex 4 {m}

BuildingSurface:Detailed,
  Core_top_ZN_5_Floor,                    !- Name
  Floor,                                  !- Surface Type
  BTAP-Int-Floor,                         !- Construction Name
  ALL_ST=Office open plan_FL=Building Story 3_SCH=A 2, !- Zone Name
  Core_top,                               !- Space Name
  Surface,                                !- Outside Boundary Condition
  MidFloor_Plenum_Ceiling_5,              !- Outside Boundary Condition Object
  NoSun,                                  !- Sun Exposure
  NoWind,                                 !- Wind Exposure
  ,                                       !- View Factor to Ground
  ,                                       !- Number of Vertices
  45.3375, 28.7006, 7.9248,               !- X,Y,Z Vertex 1 {m}
  45.3375, 4.5732, 7.9248,                !- X,Y,Z Vertex 2 {m}
  4.5732, 4.5732, 7.9248,                 !- X,Y,Z Vertex 3 {m}
  4.5732, 28.7006, 7.9248;                !- X,Y,Z Vertex 4 {m}

BuildingSurface:Detailed,
  Core_top_ZN_5_Wall_East,                !- Name
  Wall,                                   !- Surface Type
  BTAP-Int-Wall,                          !- Construction Name
  ALL_ST=Office open plan_FL=Building Story 3_SCH=A 2, !- Zone Name
  Core_top,                               !- Space Name
  Surface,                                !- Outside Boundary Condition
  Perimeter_top_ZN_2_Wall_West,           !- Outside Boundary Condition Object
  NoSun,                                  !- Sun Exposure
  NoWind,                                 !- Wind Exposure
  ,                                       !- View Factor to Ground
  ,                                       !- Number of Vertices
  45.3375, 4.5732, 10.668,                !- X,Y,Z Vertex 1 {m}
  45.3375, 4.5732, 7.9248,                !- X,Y,Z Vertex 2 {m}
  45.3375, 28.7006, 7.9248,               !- X,Y,Z Vertex 3 {m}
  45.3375, 28.7006, 10.668;               !- X,Y,Z Vertex 4 {m}

BuildingSurface:Detailed,
  Core_top_ZN_5_Wall_North,               !- Name
  Wall,                                   !- Surface Type
  BTAP-Int-Wall,                          !- Construction Name
  ALL_ST=Office open plan_FL=Building Story 3_SCH=A 2, !- Zone Name
  Core_top,                               !- Space Name
  Surface,                                !- Outside Boundary Condition
  Perimeter_top_ZN_3_Wall_South,          !- Outside Boundary Condition Object
  NoSun,                                  !- Sun Exposure
  NoWind,                                 !- Wind Exposure
  ,                                       !- View Factor to Ground
  ,                                       !- Number of Vertices
  45.3375, 28.7006, 10.668,               !- X,Y,Z Vertex 1 {m}
  45.3375, 28.7006, 7.9248,               !- X,Y,Z Vertex 2 {m}
  4.5732, 28.7006, 7.9248,                !- X,Y,Z Vertex 3 {m}
  4.5732, 28.7006, 10.668;                !- X,Y,Z Vertex 4 {m}

BuildingSurface:Detailed,
  Core_top_ZN_5_Wall_South,               !- Name
  Wall,                                   !- Surface Type
  BTAP-Int-Wall,                          !- Construction Name
  ALL_ST=Office open plan_FL=Building Story 3_SCH=A 2, !- Zone Name
  Core_top,                               !- Space Name
  Surface,                                !- Outside Boundary Condition
  Perimeter_top_ZN_1_Wall_North,          !- Outside Boundary Condition Object
  NoSun,                                  !- Sun Exposure
  NoWind,                                 !- Wind Exposure
  ,                                       !- View Factor to Ground
  ,                                       !- Number of Vertices
  4.5732, 4.5732, 10.668,                 !- X,Y,Z Vertex 1 {m}
  4.5732, 4.5732, 7.9248,                 !- X,Y,Z Vertex 2 {m}
  45.3375, 4.5732, 7.9248,                !- X,Y,Z Vertex 3 {m}
  45.3375, 4.5732, 10.668;                !- X,Y,Z Vertex 4 {m}

BuildingSurface:Detailed,
  Core_top_ZN_5_Wall_West,                !- Name
  Wall,                                   !- Surface Type
  BTAP-Int-Wall,                          !- Construction Name
  ALL_ST=Office open plan_FL=Building Story 3_SCH=A 2, !- Zone Name
  Core_top,                               !- Space Name
  Surface,                                !- Outside Boundary Condition
  Perimeter_top_ZN_4_Wall_East,           !- Outside Boundary Condition Object
  NoSun,                                  !- Sun Exposure
  NoWind,                                 !- Wind Exposure
  ,                                       !- View Factor to Ground
  ,                                       !- Number of Vertices
  4.5732, 28.7006, 10.668,                !- X,Y,Z Vertex 1 {m}
  4.5732, 28.7006, 7.9248,                !- X,Y,Z Vertex 2 {m}
  4.5732, 4.5732, 7.9248,                 !- X,Y,Z Vertex 3 {m}
  4.5732, 4.5732, 10.668;                 !- X,Y,Z Vertex 4 {m}

ZoneControl:Thermostat,
  ALL_ST=Office open plan_FL=Building Story 3_SCH=A 2 Thermostat, !- Name
  ALL_ST=Office open plan_FL=Building Story 3_SCH=A 2, !- Zone or ZoneList Name
  ALL_ST=Office open plan_FL=Building Story 3_SCH=A 2 Thermostat Schedule, !- Control Type Schedule Name
  ThermostatSetpoint:DualSetpoint,        !- Control 1 Object Type
  Space Function Office open plan Thermostat 34, !- Control 1 Name
  ,                                       !- Control 2 Object Type
  ,                                       !- Control 2 Name
  ,                                       !- Control 3 Object Type
  ,                                       !- Control 3 Name
  ,                                       !- Control 4 Object Type
  ,                                       !- Control 4 Name
  0;                                      !- Temperature Difference Between Cutout And Setpoint {deltaC}

Schedule:Compact,
  ALL_ST=Office open plan_FL=Building Story 3_SCH=A 2 Thermostat Schedule, !- Name
  ALL_ST=Office open plan_FL=Building Story 3_SCH=A 2 Thermostat Schedule Type Limits, !- Schedule Type Limits Name
  Through: 12/31,                         !- Field 1
  For: AllDays,                           !- Field 2
  Until: 24:00,                           !- Field 3
  4;                                      !- Field 4

ScheduleTypeLimits,
  ALL_ST=Office open plan_FL=Building Story 3_SCH=A 2 Thermostat Schedule Type Limits, !- Name
  0,                                      !- Lower Limit Value {BasedOnField A3}
  4,                                      !- Upper Limit Value {BasedOnField A3}
  DISCRETE;                               !- Numeric Type

ThermostatSetpoint:DualSetpoint,
  Space Function Office open plan Thermostat 34, !- Name
  NECB-A-Thermostat Setpoint-Heating,     !- Heating Setpoint Temperature Schedule Name
  NECB-A-Thermostat Setpoint-Cooling;     !- Cooling Setpoint Temperature Schedule Name

ZoneHVAC:EquipmentConnections,
  ALL_ST=Office open plan_FL=Building Story 3_SCH=A 2, !- Zone Name
  ALL_ST=Office open plan_FL=Building Story 3_SCH=A 2 Equipment List, !- Zone Conditioning Equipment List Name
  ALL_ST=Office open plan_FL=Building Story 3_SCH=A 2 Inlet Node List, !- Zone Air Inlet Node or NodeList Name
  ,                                       !- Zone Air Exhaust Node or NodeList Name
  ALL_ST=Office open plan_FL=Building Story 3_SCH=A 2 Zone Air Node, !- Zone Air Node Name
  ALL_ST=Office open plan_FL=Building Story 3_SCH=A 2 Return Node List; !- Zone Return Air Node or NodeList Name

NodeList,
  ALL_ST=Office open plan_FL=Building Story 3_SCH=A 2 Inlet Node List, !- Name
  Air Terminal Single Duct VAV Reheat 13 Outlet Air Node; !- Node Name 1

NodeList,
  ALL_ST=Office open plan_FL=Building Story 3_SCH=A 2 Return Node List, !- Name
  ALL_ST=Office open plan_FL=Building Story 3_SCH=A 2 Return Air Node; !- Node Name 1

ZoneHVAC:AirDistributionUnit,
  ADU Air Terminal Single Duct VAV Reheat 13, !- Name
  Air Terminal Single Duct VAV Reheat 13 Outlet Air Node, !- Air Distribution Unit Outlet Node Name
  AirTerminal:SingleDuct:VAV:Reheat,      !- Air Terminal Object Type
  Air Terminal Single Duct VAV Reheat 13; !- Air Terminal Name

AirTerminal:SingleDuct:VAV:Reheat,
  Air Terminal Single Duct VAV Reheat 13, !- Name
  Always On Discrete,                     !- Availability Schedule Name
  Air Terminal Single Duct VAV Reheat 13 Damper Outlet, !- Damper Air Outlet Node Name
  Air Terminal Single Duct VAV Reheat 13 Inlet Air Node, !- Air Inlet Node Name
  Autosize,                               !- Maximum Air Flow Rate {m3/s}
  Constant,                               !- Zone Minimum Air Flow Input Method
  0.3,                                    !- Constant Minimum Air Flow Fraction
  0,                                      !- Fixed Minimum Air Flow Rate {m3/s}
  ,                                       !- Minimum Air Flow Fraction Schedule Name
  Coil:Heating:Electric,                  !- Reheat Coil Object Type
  Coil Heating Electric 13,               !- Reheat Coil Name
  Autosize,                               !- Maximum Hot Water or Steam Flow Rate {m3/s}
  0,                                      !- Minimum Hot Water or Steam Flow Rate {m3/s}
  Air Terminal Single Duct VAV Reheat 13 Outlet Air Node, !- Air Outlet Node Name
  0.001,                                  !- Convergence Tolerance
  Normal,                                 !- Damper Heating Action
  Autocalculate,                          !- Maximum Flow per Zone Floor Area During Reheat {m3/s-m2}
  0.5,                                    !- Maximum Flow Fraction During Reheat
  43;                                     !- Maximum Reheat Air Temperature {C}

Coil:Heating:Electric,
  Coil Heating Electric 13,               !- Name
  Always On Discrete,                     !- Availability Schedule Name
  1,                                      !- Efficiency
  34649.2678642273,                       !- Nominal Capacity {W}
  Air Terminal Single Duct VAV Reheat 13 Damper Outlet, !- Air Inlet Node Name
  Air Terminal Single Duct VAV Reheat 13 Outlet Air Node; !- Air Outlet Node Name

ZoneHVAC:Baseboard:Convective:Electric,
  ZoneHVACBaseboardConvectiveElectric 12, !- Name
  Always On Discrete,                     !- Availability Schedule Name
  ,                                       !- Heating Design Capacity Method
  Autosize,                               !- Heating Design Capacity {W}
  ,                                       !- Heating Design Capacity Per Floor Area {W/m2}
  ,                                       !- Fraction of Autosized Heating Design Capacity
  1;                                      !- Efficiency

ZoneHVAC:EquipmentList,
  ALL_ST=Office open plan_FL=Building Story 3_SCH=A 2 Equipment List, !- Name
  SequentialLoad,                         !- Load Distribution Scheme
  ZoneHVAC:AirDistributionUnit,           !- Zone Equipment Object Type 1
  ADU Air Terminal Single Duct VAV Reheat 13, !- Zone Equipment Name 1
  1,                                      !- Zone Equipment Cooling Sequence 1
  1,                                      !- Zone Equipment Heating or No-Load Sequence 1
  ,                                       !- Zone Equipment Sequential Cooling Fraction Schedule Name 1
  ,                                       !- Zone Equipment Sequential Heating Fraction Schedule Name 1
  ZoneHVAC:Baseboard:Convective:Electric, !- Zone Equipment Object Type 2
  ZoneHVACBaseboardConvectiveElectric 12, !- Zone Equipment Name 2
  2,                                      !- Zone Equipment Cooling Sequence 2
  2,                                      !- Zone Equipment Heating or No-Load Sequence 2
  ,                                       !- Zone Equipment Sequential Cooling Fraction Schedule Name 2
  ;                                       !- Zone Equipment Sequential Heating Fraction Schedule Name 2

Sizing:Zone,
  ALL_ST=Office open plan_FL=Building Story 3_SCH=A 2, !- Zone or ZoneList Name
  TemperatureDifference,                  !- Zone Cooling Design Supply Air Temperature Input Method
  13,                                     !- Zone Cooling Design Supply Air Temperature {C}
  11,                                     !- Zone Cooling Design Supply Air Temperature Difference {deltaC}
  TemperatureDifference,                  !- Zone Heating Design Supply Air Temperature Input Method
  43,                                     !- Zone Heating Design Supply Air Temperature {C}
  21,                                     !- Zone Heating Design Supply Air Temperature Difference {deltaC}
  0.0085,                                 !- Zone Cooling Design Supply Air Humidity Ratio {kgWater/kgDryAir}
  0.008,                                  !- Zone Heating Design Supply Air Humidity Ratio {kgWater/kgDryAir}
  ALL_ST=Office open plan_FL=Building Story 3_SCH=A 2 DSOA Space List, !- Design Specification Outdoor Air Object Name
  1.3,                                    !- Zone Heating Sizing Factor
  1.1,                                    !- Zone Cooling Sizing Factor
  DesignDay,                              !- Cooling Design Air Flow Method
  0,                                      !- Cooling Design Air Flow Rate {m3/s}
  0.000762,                               !- Cooling Minimum Air Flow per Zone Floor Area {m3/s-m2}
  0,                                      !- Cooling Minimum Air Flow {m3/s}
  0,                                      !- Cooling Minimum Air Flow Fraction
  DesignDay,                              !- Heating Design Air Flow Method
  0,                                      !- Heating Design Air Flow Rate {m3/s}
  0.002032,                               !- Heating Maximum Air Flow per Zone Floor Area {m3/s-m2}
  0.1415762,                              !- Heating Maximum Air Flow {m3/s}
  0.3,                                    !- Heating Maximum Air Flow Fraction
  ,                                       !- Design Specification Zone Air Distribution Object Name
  No,                                     !- Account for Dedicated Outdoor Air System
  ,                                       !- Dedicated Outdoor Air System Control Strategy
  ,                                       !- Dedicated Outdoor Air Low Setpoint Temperature for Design {C}
  ,                                       !- Dedicated Outdoor Air High Setpoint Temperature for Design {C}
  Sensible Load Only No Latent Load,      !- Zone Load Sizing Method
  HumidityRatioDifference,                !- Zone Latent Cooling Design Supply Air Humidity Ratio Input Method
  ,                                       !- Zone Dehumidification Design Supply Air Humidity Ratio {kgWater/kgDryAir}
  0.005,                                  !- Zone Cooling Design Supply Air Humidity Ratio Difference {kgWater/kgDryAir}
  HumidityRatioDifference,                !- Zone Latent Heating Design Supply Air Humidity Ratio Input Method
  ,                                       !- Zone Humidification Design Supply Air Humidity Ratio {kgWater/kgDryAir}
  0.005,                                  !- Zone Humidification Design Supply Air Humidity Ratio Difference {kgWater/kgDryAir}
  ,                                       !- Zone Humidistat Dehumidification Set Point Schedule Name
  ,                                       !- Zone Humidistat Humidification Set Point Schedule Name
  Coincident;                             !- Type of Space Sum to Use

DesignSpecification:OutdoorAir:SpaceList,
  ALL_ST=Office open plan_FL=Building Story 3_SCH=A 2 DSOA Space List, !- Name
  Core_top,                               !- Space Name 1
  Space Function Office open plan Ventilation; !- Space Design Specification Outdoor Air Object Name 1

Zone,
  ALL_ST=Office open plan_FL=Building Story 3_SCH=A 3, !- Name
  0,                                      !- Direction of Relative North {deg}
  0,                                      !- X Origin {m}
  0,                                      !- Y Origin {m}
  0,                                      !- Z Origin {m}
  ,                                       !- Type
  1,                                      !- Multiplier
  ,                                       !- Ceiling Height {m}
  ,                                       !- Volume {m3}
  ,                                       !- Floor Area {m2}
  ,                                       !- Zone Inside Convection Algorithm
  ,                                       !- Zone Outside Convection Algorithm
  Yes;                                    !- Part of Total Floor Area

Space,
  Perimeter_top_ZN_3,                     !- Name
  ALL_ST=Office open plan_FL=Building Story 3_SCH=A 3, !- Zone Name
  ,                                       !- Ceiling Height {m}
  568.769988336336,                       !- Volume {m3}
  ,                                       !- Floor Area {m2}
  Space Function Office open plan;        !- Space Type

BuildingSurface:Detailed,
  Perimeter_top_ZN_3_Ceiling,             !- Name
  Ceiling,                                !- Surface Type
  BTAP-Int-Ceiling,                       !- Construction Name
  ALL_ST=Office open plan_FL=Building Story 3_SCH=A 3, !- Zone Name
  Perimeter_top_ZN_3,                     !- Space Name
  Surface,                                !- Outside Boundary Condition
  TopFloor_Plenum_Floor_3,                !- Outside Boundary Condition Object
  NoSun,                                  !- Sun Exposure
  NoWind,                                 !- Wind Exposure
  ,                                       !- View Factor to Ground
  ,                                       !- Number of Vertices
  45.3375, 28.7006, 10.668,               !- X,Y,Z Vertex 1 {m}
  49.911, 33.2738, 10.668,                !- X,Y,Z Vertex 2 {m}
  0, 33.2738, 10.668,                     !- X,Y,Z Vertex 3 {m}
  4.5732, 28.7006, 10.668;                !- X,Y,Z Vertex 4 {m}

BuildingSurface:Detailed,
  Perimeter_top_ZN_3_Floor,               !- Name
  Floor,                                  !- Surface Type
  BTAP-Int-Floor,                         !- Construction Name
  ALL_ST=Office open plan_FL=Building Story 3_SCH=A 3, !- Zone Name
  Perimeter_top_ZN_3,                     !- Space Name
  Surface,                                !- Outside Boundary Condition
  MidFloor_Plenum_Ceiling_3,              !- Outside Boundary Condition Object
  NoSun,                                  !- Sun Exposure
  NoWind,                                 !- Wind Exposure
  ,                                       !- View Factor to Ground
  ,                                       !- Number of Vertices
  49.911, 33.2738, 7.9248,                !- X,Y,Z Vertex 1 {m}
  45.3375, 28.7006, 7.9248,               !- X,Y,Z Vertex 2 {m}
  4.5732, 28.7006, 7.9248,                !- X,Y,Z Vertex 3 {m}
  0, 33.2738, 7.9248;                     !- X,Y,Z Vertex 4 {m}

BuildingSurface:Detailed,
  Perimeter_top_ZN_3_Wall_East,           !- Name
  Wall,                                   !- Surface Type
  BTAP-Int-Wall,                          !- Construction Name
  ALL_ST=Office open plan_FL=Building Story 3_SCH=A 3, !- Zone Name
  Perimeter_top_ZN_3,                     !- Space Name
  Surface,                                !- Outside Boundary Condition
  Perimeter_top_ZN_2_Wall_North,          !- Outside Boundary Condition Object
  NoSun,                                  !- Sun Exposure
  NoWind,                                 !- Wind Exposure
  ,                                       !- View Factor to Ground
  ,                                       !- Number of Vertices
  45.3375, 28.7006, 10.668,               !- X,Y,Z Vertex 1 {m}
  45.3375, 28.7006, 7.9248,               !- X,Y,Z Vertex 2 {m}
  49.911, 33.2738, 7.9248,                !- X,Y,Z Vertex 3 {m}
  49.911, 33.2738, 10.668;                !- X,Y,Z Vertex 4 {m}

BuildingSurface:Detailed,
  Perimeter_top_ZN_3_Wall_North,          !- Name
  Wall,                                   !- Surface Type
  BTAP-Ext-Wall-Mass:U-0.29,              !- Construction Name
  ALL_ST=Office open plan_FL=Building Story 3_SCH=A 3, !- Zone Name
  Perimeter_top_ZN_3,                     !- Space Name
  Outdoors,                               !- Outside Boundary Condition
  ,                                       !- Outside Boundary Condition Object
  SunExposed,                             !- Sun Exposure
  WindExposed,                            !- Wind Exposure
  ,                                       !- View Factor to Ground
  ,                                       !- Number of Vertices
  49.911, 33.2738, 10.668,                !- X,Y,Z Vertex 1 {m}
  49.911, 33.2738, 7.9248,                !- X,Y,Z Vertex 2 {m}
  0, 33.2738, 7.9248,                     !- X,Y,Z Vertex 3 {m}
  0, 33.2738, 10.668;                     !- X,Y,Z Vertex 4 {m}

FenestrationSurface:Detailed,
  Perimeter_top_ZN_3_Wall_North_FixedWindow, !- Name
  Window,                                 !- Surface Type
  BTAP-Ext-FixedWindow:U=0.280 SHGC=0.600, !- Construction Name
  Perimeter_top_ZN_3_Wall_North,          !- Building Surface Name
  ,                                       !- Outside Boundary Condition Object
  ,                                       !- View Factor to Ground
  ,                                       !- Frame and Divider Name
  ,                                       !- Multiplier
  ,                                       !- Number of Vertices
  49.8856, 33.2738, 10.0076235496689,     !- X,Y,Z Vertex 1 {m}
  49.8856, 33.2738, 8.6868,               !- X,Y,Z Vertex 2 {m}
  0.0254000000000048, 33.2738, 8.6868,    !- X,Y,Z Vertex 3 {m}
  0.0254000000000048, 33.2738, 10.0076235496689; !- X,Y,Z Vertex 4 {m}

BuildingSurface:Detailed,
  Perimeter_top_ZN_3_Wall_South,          !- Name
  Wall,                                   !- Surface Type
  BTAP-Int-Wall,                          !- Construction Name
  ALL_ST=Office open plan_FL=Building Story 3_SCH=A 3, !- Zone Name
  Perimeter_top_ZN_3,                     !- Space Name
  Surface,                                !- Outside Boundary Condition
  Core_top_ZN_5_Wall_North,               !- Outside Boundary Condition Object
  NoSun,                                  !- Sun Exposure
  NoWind,                                 !- Wind Exposure
  ,                                       !- View Factor to Ground
  ,                                       !- Number of Vertices
  4.5732, 28.7006, 10.668,                !- X,Y,Z Vertex 1 {m}
  4.5732, 28.7006, 7.9248,                !- X,Y,Z Vertex 2 {m}
  45.3375, 28.7006, 7.9248,               !- X,Y,Z Vertex 3 {m}
  45.3375, 28.7006, 10.668;               !- X,Y,Z Vertex 4 {m}

BuildingSurface:Detailed,
  Perimeter_top_ZN_3_Wall_West,           !- Name
  Wall,                                   !- Surface Type
  BTAP-Int-Wall,                          !- Construction Name
  ALL_ST=Office open plan_FL=Building Story 3_SCH=A 3, !- Zone Name
  Perimeter_top_ZN_3,                     !- Space Name
  Surface,                                !- Outside Boundary Condition
  Perimeter_top_ZN_4_Wall_North,          !- Outside Boundary Condition Object
  NoSun,                                  !- Sun Exposure
  NoWind,                                 !- Wind Exposure
  ,                                       !- View Factor to Ground
  ,                                       !- Number of Vertices
  0, 33.2738, 10.668,                     !- X,Y,Z Vertex 1 {m}
  0, 33.2738, 7.9248,                     !- X,Y,Z Vertex 2 {m}
  4.5732, 28.7006, 7.9248,                !- X,Y,Z Vertex 3 {m}
  4.5732, 28.7006, 10.668;                !- X,Y,Z Vertex 4 {m}

ZoneInfiltration:DesignFlowRate,
  Perimeter_top_ZN_3 Infiltration,        !- Name
  Perimeter_top_ZN_3,                     !- Zone or ZoneList or Space or SpaceList Name
  Always On Discrete,                     !- Schedule Name
  Flow/ExteriorArea,                      !- Design Flow Rate Calculation Method
  ,                                       !- Design Flow Rate {m3/s}
  ,                                       !- Flow Rate per Floor Area {m3/s-m2}
  0.00471177345157376,                    !- Flow Rate per Exterior Surface Area {m3/s-m2}
  ,                                       !- Air Changes per Hour {1/hr}
  0,                                      !- Constant Term Coefficient
  0,                                      !- Temperature Term Coefficient
  0.224,                                  !- Velocity Term Coefficient
  0;                                      !- Velocity Squared Term Coefficient

ZoneControl:Thermostat,
  ALL_ST=Office open plan_FL=Building Story 3_SCH=A 3 Thermostat, !- Name
  ALL_ST=Office open plan_FL=Building Story 3_SCH=A 3, !- Zone or ZoneList Name
  ALL_ST=Office open plan_FL=Building Story 3_SCH=A 3 Thermostat Schedule, !- Control Type Schedule Name
  ThermostatSetpoint:DualSetpoint,        !- Control 1 Object Type
  Space Function Office open plan Thermostat 37, !- Control 1 Name
  ,                                       !- Control 2 Object Type
  ,                                       !- Control 2 Name
  ,                                       !- Control 3 Object Type
  ,                                       !- Control 3 Name
  ,                                       !- Control 4 Object Type
  ,                                       !- Control 4 Name
  0;                                      !- Temperature Difference Between Cutout And Setpoint {deltaC}

Schedule:Compact,
  ALL_ST=Office open plan_FL=Building Story 3_SCH=A 3 Thermostat Schedule, !- Name
  ALL_ST=Office open plan_FL=Building Story 3_SCH=A 3 Thermostat Schedule Type Limits, !- Schedule Type Limits Name
  Through: 12/31,                         !- Field 1
  For: AllDays,                           !- Field 2
  Until: 24:00,                           !- Field 3
  4;                                      !- Field 4

ScheduleTypeLimits,
  ALL_ST=Office open plan_FL=Building Story 3_SCH=A 3 Thermostat Schedule Type Limits, !- Name
  0,                                      !- Lower Limit Value {BasedOnField A3}
  4,                                      !- Upper Limit Value {BasedOnField A3}
  DISCRETE;                               !- Numeric Type

ThermostatSetpoint:DualSetpoint,
  Space Function Office open plan Thermostat 37, !- Name
  NECB-A-Thermostat Setpoint-Heating,     !- Heating Setpoint Temperature Schedule Name
  NECB-A-Thermostat Setpoint-Cooling;     !- Cooling Setpoint Temperature Schedule Name

ZoneHVAC:EquipmentConnections,
  ALL_ST=Office open plan_FL=Building Story 3_SCH=A 3, !- Zone Name
  ALL_ST=Office open plan_FL=Building Story 3_SCH=A 3 Equipment List, !- Zone Conditioning Equipment List Name
  ALL_ST=Office open plan_FL=Building Story 3_SCH=A 3 Inlet Node List, !- Zone Air Inlet Node or NodeList Name
  ,                                       !- Zone Air Exhaust Node or NodeList Name
  ALL_ST=Office open plan_FL=Building Story 3_SCH=A 3 Zone Air Node, !- Zone Air Node Name
  ALL_ST=Office open plan_FL=Building Story 3_SCH=A 3 Return Node List; !- Zone Return Air Node or NodeList Name

NodeList,
  ALL_ST=Office open plan_FL=Building Story 3_SCH=A 3 Inlet Node List, !- Name
  Air Terminal Single Duct VAV Reheat 14 Outlet Air Node; !- Node Name 1

NodeList,
  ALL_ST=Office open plan_FL=Building Story 3_SCH=A 3 Return Node List, !- Name
  ALL_ST=Office open plan_FL=Building Story 3_SCH=A 3 Return Air Node; !- Node Name 1

ZoneHVAC:AirDistributionUnit,
  ADU Air Terminal Single Duct VAV Reheat 14, !- Name
  Air Terminal Single Duct VAV Reheat 14 Outlet Air Node, !- Air Distribution Unit Outlet Node Name
  AirTerminal:SingleDuct:VAV:Reheat,      !- Air Terminal Object Type
  Air Terminal Single Duct VAV Reheat 14; !- Air Terminal Name

AirTerminal:SingleDuct:VAV:Reheat,
  Air Terminal Single Duct VAV Reheat 14, !- Name
  Always On Discrete,                     !- Availability Schedule Name
  Air Terminal Single Duct VAV Reheat 14 Damper Outlet, !- Damper Air Outlet Node Name
  Air Terminal Single Duct VAV Reheat 14 Inlet Air Node, !- Air Inlet Node Name
  Autosize,                               !- Maximum Air Flow Rate {m3/s}
  Constant,                               !- Zone Minimum Air Flow Input Method
  0.3,                                    !- Constant Minimum Air Flow Fraction
  0,                                      !- Fixed Minimum Air Flow Rate {m3/s}
  ,                                       !- Minimum Air Flow Fraction Schedule Name
  Coil:Heating:Electric,                  !- Reheat Coil Object Type
  Coil Heating Electric 14,               !- Reheat Coil Name
  Autosize,                               !- Maximum Hot Water or Steam Flow Rate {m3/s}
  0,                                      !- Minimum Hot Water or Steam Flow Rate {m3/s}
  Air Terminal Single Duct VAV Reheat 14 Outlet Air Node, !- Air Outlet Node Name
  0.001,                                  !- Convergence Tolerance
  Normal,                                 !- Damper Heating Action
  Autocalculate,                          !- Maximum Flow per Zone Floor Area During Reheat {m3/s-m2}
  0.5,                                    !- Maximum Flow Fraction During Reheat
  43;                                     !- Maximum Reheat Air Temperature {C}

Coil:Heating:Electric,
  Coil Heating Electric 14,               !- Name
  Always On Discrete,                     !- Availability Schedule Name
  1,                                      !- Efficiency
  19354.4722080231,                       !- Nominal Capacity {W}
  Air Terminal Single Duct VAV Reheat 14 Damper Outlet, !- Air Inlet Node Name
  Air Terminal Single Duct VAV Reheat 14 Outlet Air Node; !- Air Outlet Node Name

ZoneHVAC:Baseboard:Convective:Electric,
  ZoneHVACBaseboardConvectiveElectric 13, !- Name
  Always On Discrete,                     !- Availability Schedule Name
  ,                                       !- Heating Design Capacity Method
  Autosize,                               !- Heating Design Capacity {W}
  ,                                       !- Heating Design Capacity Per Floor Area {W/m2}
  ,                                       !- Fraction of Autosized Heating Design Capacity
  1;                                      !- Efficiency

ZoneHVAC:EquipmentList,
  ALL_ST=Office open plan_FL=Building Story 3_SCH=A 3 Equipment List, !- Name
  SequentialLoad,                         !- Load Distribution Scheme
  ZoneHVAC:AirDistributionUnit,           !- Zone Equipment Object Type 1
  ADU Air Terminal Single Duct VAV Reheat 14, !- Zone Equipment Name 1
  1,                                      !- Zone Equipment Cooling Sequence 1
  1,                                      !- Zone Equipment Heating or No-Load Sequence 1
  ,                                       !- Zone Equipment Sequential Cooling Fraction Schedule Name 1
  ,                                       !- Zone Equipment Sequential Heating Fraction Schedule Name 1
  ZoneHVAC:Baseboard:Convective:Electric, !- Zone Equipment Object Type 2
  ZoneHVACBaseboardConvectiveElectric 13, !- Zone Equipment Name 2
  2,                                      !- Zone Equipment Cooling Sequence 2
  2,                                      !- Zone Equipment Heating or No-Load Sequence 2
  ,                                       !- Zone Equipment Sequential Cooling Fraction Schedule Name 2
  ;                                       !- Zone Equipment Sequential Heating Fraction Schedule Name 2

Sizing:Zone,
  ALL_ST=Office open plan_FL=Building Story 3_SCH=A 3, !- Zone or ZoneList Name
  TemperatureDifference,                  !- Zone Cooling Design Supply Air Temperature Input Method
  13,                                     !- Zone Cooling Design Supply Air Temperature {C}
  11,                                     !- Zone Cooling Design Supply Air Temperature Difference {deltaC}
  TemperatureDifference,                  !- Zone Heating Design Supply Air Temperature Input Method
  43,                                     !- Zone Heating Design Supply Air Temperature {C}
  21,                                     !- Zone Heating Design Supply Air Temperature Difference {deltaC}
  0.0085,                                 !- Zone Cooling Design Supply Air Humidity Ratio {kgWater/kgDryAir}
  0.008,                                  !- Zone Heating Design Supply Air Humidity Ratio {kgWater/kgDryAir}
  ALL_ST=Office open plan_FL=Building Story 3_SCH=A 3 DSOA Space List, !- Design Specification Outdoor Air Object Name
  1.3,                                    !- Zone Heating Sizing Factor
  1.1,                                    !- Zone Cooling Sizing Factor
  DesignDay,                              !- Cooling Design Air Flow Method
  0,                                      !- Cooling Design Air Flow Rate {m3/s}
  0.000762,                               !- Cooling Minimum Air Flow per Zone Floor Area {m3/s-m2}
  0,                                      !- Cooling Minimum Air Flow {m3/s}
  0,                                      !- Cooling Minimum Air Flow Fraction
  DesignDay,                              !- Heating Design Air Flow Method
  0,                                      !- Heating Design Air Flow Rate {m3/s}
  0.002032,                               !- Heating Maximum Air Flow per Zone Floor Area {m3/s-m2}
  0.1415762,                              !- Heating Maximum Air Flow {m3/s}
  0.3,                                    !- Heating Maximum Air Flow Fraction
  ,                                       !- Design Specification Zone Air Distribution Object Name
  No,                                     !- Account for Dedicated Outdoor Air System
  ,                                       !- Dedicated Outdoor Air System Control Strategy
  ,                                       !- Dedicated Outdoor Air Low Setpoint Temperature for Design {C}
  ,                                       !- Dedicated Outdoor Air High Setpoint Temperature for Design {C}
  Sensible Load Only No Latent Load,      !- Zone Load Sizing Method
  HumidityRatioDifference,                !- Zone Latent Cooling Design Supply Air Humidity Ratio Input Method
  ,                                       !- Zone Dehumidification Design Supply Air Humidity Ratio {kgWater/kgDryAir}
  0.005,                                  !- Zone Cooling Design Supply Air Humidity Ratio Difference {kgWater/kgDryAir}
  HumidityRatioDifference,                !- Zone Latent Heating Design Supply Air Humidity Ratio Input Method
  ,                                       !- Zone Humidification Design Supply Air Humidity Ratio {kgWater/kgDryAir}
  0.005,                                  !- Zone Humidification Design Supply Air Humidity Ratio Difference {kgWater/kgDryAir}
  ,                                       !- Zone Humidistat Dehumidification Set Point Schedule Name
  ,                                       !- Zone Humidistat Humidification Set Point Schedule Name
  Coincident;                             !- Type of Space Sum to Use

DesignSpecification:OutdoorAir:SpaceList,
  ALL_ST=Office open plan_FL=Building Story 3_SCH=A 3 DSOA Space List, !- Name
  Perimeter_top_ZN_3,                     !- Space Name 1
  Space Function Office open plan Ventilation; !- Space Design Specification Outdoor Air Object Name 1

Zone,
  ALL_ST=Office open plan_FL=Building Story 3_SCH=A 4, !- Name
  0,                                      !- Direction of Relative North {deg}
  0,                                      !- X Origin {m}
  0,                                      !- Y Origin {m}
  0,                                      !- Z Origin {m}
  ,                                       !- Type
  1,                                      !- Multiplier
  ,                                       !- Ceiling Height {m}
  ,                                       !- Volume {m3}
  ,                                       !- Floor Area {m2}
  ,                                       !- Zone Inside Convection Algorithm
  ,                                       !- Zone Outside Convection Algorithm
  Yes;                                    !- Part of Total Floor Area

Space,
  Perimeter_top_ZN_4,                     !- Name
  ALL_ST=Office open plan_FL=Building Story 3_SCH=A 4, !- Zone Name
  ,                                       !- Ceiling Height {m}
  360.054831409344,                       !- Volume {m3}
  ,                                       !- Floor Area {m2}
  Space Function Office open plan;        !- Space Type

BuildingSurface:Detailed,
  Perimeter_top_ZN_4_Ceiling,             !- Name
  Ceiling,                                !- Surface Type
  BTAP-Int-Ceiling,                       !- Construction Name
  ALL_ST=Office open plan_FL=Building Story 3_SCH=A 4, !- Zone Name
  Perimeter_top_ZN_4,                     !- Space Name
  Surface,                                !- Outside Boundary Condition
  TopFloor_Plenum_Floor_4,                !- Outside Boundary Condition Object
  NoSun,                                  !- Sun Exposure
  NoWind,                                 !- Wind Exposure
  ,                                       !- View Factor to Ground
  ,                                       !- Number of Vertices
  0, 0, 10.668,                           !- X,Y,Z Vertex 1 {m}
  4.5732, 4.5732, 10.668,                 !- X,Y,Z Vertex 2 {m}
  4.5732, 28.7006, 10.668,                !- X,Y,Z Vertex 3 {m}
  0, 33.2738, 10.668;                     !- X,Y,Z Vertex 4 {m}

BuildingSurface:Detailed,
  Perimeter_top_ZN_4_Floor,               !- Name
  Floor,                                  !- Surface Type
  BTAP-Int-Floor,                         !- Construction Name
  ALL_ST=Office open plan_FL=Building Story 3_SCH=A 4, !- Zone Name
  Perimeter_top_ZN_4,                     !- Space Name
  Surface,                                !- Outside Boundary Condition
  MidFloor_Plenum_Ceiling_4,              !- Outside Boundary Condition Object
  NoSun,                                  !- Sun Exposure
  NoWind,                                 !- Wind Exposure
  ,                                       !- View Factor to Ground
  ,                                       !- Number of Vertices
  0, 33.2738, 7.9248,                     !- X,Y,Z Vertex 1 {m}
  4.5732, 28.7006, 7.9248,                !- X,Y,Z Vertex 2 {m}
  4.5732, 4.5732, 7.9248,                 !- X,Y,Z Vertex 3 {m}
  0, 0, 7.9248;                           !- X,Y,Z Vertex 4 {m}

BuildingSurface:Detailed,
  Perimeter_top_ZN_4_Wall_East,           !- Name
  Wall,                                   !- Surface Type
  BTAP-Int-Wall,                          !- Construction Name
  ALL_ST=Office open plan_FL=Building Story 3_SCH=A 4, !- Zone Name
  Perimeter_top_ZN_4,                     !- Space Name
  Surface,                                !- Outside Boundary Condition
  Core_top_ZN_5_Wall_West,                !- Outside Boundary Condition Object
  NoSun,                                  !- Sun Exposure
  NoWind,                                 !- Wind Exposure
  ,                                       !- View Factor to Ground
  ,                                       !- Number of Vertices
  4.5732, 4.5732, 10.668,                 !- X,Y,Z Vertex 1 {m}
  4.5732, 4.5732, 7.9248,                 !- X,Y,Z Vertex 2 {m}
  4.5732, 28.7006, 7.9248,                !- X,Y,Z Vertex 3 {m}
  4.5732, 28.7006, 10.668;                !- X,Y,Z Vertex 4 {m}

BuildingSurface:Detailed,
  Perimeter_top_ZN_4_Wall_North,          !- Name
  Wall,                                   !- Surface Type
  BTAP-Int-Wall,                          !- Construction Name
  ALL_ST=Office open plan_FL=Building Story 3_SCH=A 4, !- Zone Name
  Perimeter_top_ZN_4,                     !- Space Name
  Surface,                                !- Outside Boundary Condition
  Perimeter_top_ZN_3_Wall_West,           !- Outside Boundary Condition Object
  NoSun,                                  !- Sun Exposure
  NoWind,                                 !- Wind Exposure
  ,                                       !- View Factor to Ground
  ,                                       !- Number of Vertices
  4.5732, 28.7006, 10.668,                !- X,Y,Z Vertex 1 {m}
  4.5732, 28.7006, 7.9248,                !- X,Y,Z Vertex 2 {m}
  0, 33.2738, 7.9248,                     !- X,Y,Z Vertex 3 {m}
  0, 33.2738, 10.668;                     !- X,Y,Z Vertex 4 {m}

BuildingSurface:Detailed,
  Perimeter_top_ZN_4_Wall_South,          !- Name
  Wall,                                   !- Surface Type
  BTAP-Int-Wall,                          !- Construction Name
  ALL_ST=Office open plan_FL=Building Story 3_SCH=A 4, !- Zone Name
  Perimeter_top_ZN_4,                     !- Space Name
  Surface,                                !- Outside Boundary Condition
  Perimeter_top_ZN_1_Wall_West,           !- Outside Boundary Condition Object
  NoSun,                                  !- Sun Exposure
  NoWind,                                 !- Wind Exposure
  ,                                       !- View Factor to Ground
  ,                                       !- Number of Vertices
  0, 0, 10.668,                           !- X,Y,Z Vertex 1 {m}
  0, 0, 7.9248,                           !- X,Y,Z Vertex 2 {m}
  4.5732, 4.5732, 7.9248,                 !- X,Y,Z Vertex 3 {m}
  4.5732, 4.5732, 10.668;                 !- X,Y,Z Vertex 4 {m}

BuildingSurface:Detailed,
  Perimeter_top_ZN_4_Wall_West,           !- Name
  Wall,                                   !- Surface Type
  BTAP-Ext-Wall-Mass:U-0.29,              !- Construction Name
  ALL_ST=Office open plan_FL=Building Story 3_SCH=A 4, !- Zone Name
  Perimeter_top_ZN_4,                     !- Space Name
  Outdoors,                               !- Outside Boundary Condition
  ,                                       !- Outside Boundary Condition Object
  SunExposed,                             !- Sun Exposure
  WindExposed,                            !- Wind Exposure
  ,                                       !- View Factor to Ground
  ,                                       !- Number of Vertices
  0, 33.2738, 10.668,                     !- X,Y,Z Vertex 1 {m}
  0, 33.2738, 7.9248,                     !- X,Y,Z Vertex 2 {m}
  0, 0, 7.9248,                           !- X,Y,Z Vertex 3 {m}
  0, 0, 10.668;                           !- X,Y,Z Vertex 4 {m}

FenestrationSurface:Detailed,
  Perimeter_top_ZN_4_Wall_West_FixedWindow, !- Name
  Window,                                 !- Surface Type
  BTAP-Ext-FixedWindow:U=0.280 SHGC=0.600, !- Construction Name
  Perimeter_top_ZN_4_Wall_West,           !- Building Surface Name
  ,                                       !- Outside Boundary Condition Object
  ,                                       !- View Factor to Ground
  ,                                       !- Frame and Divider Name
  ,                                       !- Multiplier
  ,                                       !- Number of Vertices
  0, 33.2484, 10.0082967644391,           !- X,Y,Z Vertex 1 {m}
  0, 33.2484, 8.6868,                     !- X,Y,Z Vertex 2 {m}
  0, 0.0254000000000048, 8.6868,          !- X,Y,Z Vertex 3 {m}
  0, 0.0254000000000048, 10.0082967644391; !- X,Y,Z Vertex 4 {m}

ZoneInfiltration:DesignFlowRate,
  Perimeter_top_ZN_4 Infiltration,        !- Name
  Perimeter_top_ZN_4,                     !- Zone or ZoneList or Space or SpaceList Name
  Always On Discrete,                     !- Schedule Name
  Flow/ExteriorArea,                      !- Design Flow Rate Calculation Method
  ,                                       !- Design Flow Rate {m3/s}
  ,                                       !- Flow Rate per Floor Area {m3/s-m2}
  0.00471177345157376,                    !- Flow Rate per Exterior Surface Area {m3/s-m2}
  ,                                       !- Air Changes per Hour {1/hr}
  0,                                      !- Constant Term Coefficient
  0,                                      !- Temperature Term Coefficient
  0.224,                                  !- Velocity Term Coefficient
  0;                                      !- Velocity Squared Term Coefficient

ZoneControl:Thermostat,
  ALL_ST=Office open plan_FL=Building Story 3_SCH=A 4 Thermostat, !- Name
  ALL_ST=Office open plan_FL=Building Story 3_SCH=A 4, !- Zone or ZoneList Name
  ALL_ST=Office open plan_FL=Building Story 3_SCH=A 4 Thermostat Schedule, !- Control Type Schedule Name
  ThermostatSetpoint:DualSetpoint,        !- Control 1 Object Type
  Space Function Office open plan Thermostat 39, !- Control 1 Name
  ,                                       !- Control 2 Object Type
  ,                                       !- Control 2 Name
  ,                                       !- Control 3 Object Type
  ,                                       !- Control 3 Name
  ,                                       !- Control 4 Object Type
  ,                                       !- Control 4 Name
  0;                                      !- Temperature Difference Between Cutout And Setpoint {deltaC}

Schedule:Compact,
  ALL_ST=Office open plan_FL=Building Story 3_SCH=A 4 Thermostat Schedule, !- Name
  ALL_ST=Office open plan_FL=Building Story 3_SCH=A 4 Thermostat Schedule Type Limits, !- Schedule Type Limits Name
  Through: 12/31,                         !- Field 1
  For: AllDays,                           !- Field 2
  Until: 24:00,                           !- Field 3
  4;                                      !- Field 4

ScheduleTypeLimits,
  ALL_ST=Office open plan_FL=Building Story 3_SCH=A 4 Thermostat Schedule Type Limits, !- Name
  0,                                      !- Lower Limit Value {BasedOnField A3}
  4,                                      !- Upper Limit Value {BasedOnField A3}
  DISCRETE;                               !- Numeric Type

ThermostatSetpoint:DualSetpoint,
  Space Function Office open plan Thermostat 39, !- Name
  NECB-A-Thermostat Setpoint-Heating,     !- Heating Setpoint Temperature Schedule Name
  NECB-A-Thermostat Setpoint-Cooling;     !- Cooling Setpoint Temperature Schedule Name

ZoneHVAC:EquipmentConnections,
  ALL_ST=Office open plan_FL=Building Story 3_SCH=A 4, !- Zone Name
  ALL_ST=Office open plan_FL=Building Story 3_SCH=A 4 Equipment List, !- Zone Conditioning Equipment List Name
  ALL_ST=Office open plan_FL=Building Story 3_SCH=A 4 Inlet Node List, !- Zone Air Inlet Node or NodeList Name
  ,                                       !- Zone Air Exhaust Node or NodeList Name
  ALL_ST=Office open plan_FL=Building Story 3_SCH=A 4 Zone Air Node, !- Zone Air Node Name
  ALL_ST=Office open plan_FL=Building Story 3_SCH=A 4 Return Node List; !- Zone Return Air Node or NodeList Name

NodeList,
  ALL_ST=Office open plan_FL=Building Story 3_SCH=A 4 Inlet Node List, !- Name
  Air Terminal Single Duct VAV Reheat 15 Outlet Air Node; !- Node Name 1

NodeList,
  ALL_ST=Office open plan_FL=Building Story 3_SCH=A 4 Return Node List, !- Name
  ALL_ST=Office open plan_FL=Building Story 3_SCH=A 4 Return Air Node; !- Node Name 1

ZoneHVAC:AirDistributionUnit,
  ADU Air Terminal Single Duct VAV Reheat 15, !- Name
  Air Terminal Single Duct VAV Reheat 15 Outlet Air Node, !- Air Distribution Unit Outlet Node Name
  AirTerminal:SingleDuct:VAV:Reheat,      !- Air Terminal Object Type
  Air Terminal Single Duct VAV Reheat 15; !- Air Terminal Name

AirTerminal:SingleDuct:VAV:Reheat,
  Air Terminal Single Duct VAV Reheat 15, !- Name
  Always On Discrete,                     !- Availability Schedule Name
  Air Terminal Single Duct VAV Reheat 15 Damper Outlet, !- Damper Air Outlet Node Name
  Air Terminal Single Duct VAV Reheat 15 Inlet Air Node, !- Air Inlet Node Name
  Autosize,                               !- Maximum Air Flow Rate {m3/s}
  Constant,                               !- Zone Minimum Air Flow Input Method
  0.3,                                    !- Constant Minimum Air Flow Fraction
  0,                                      !- Fixed Minimum Air Flow Rate {m3/s}
  ,                                       !- Minimum Air Flow Fraction Schedule Name
  Coil:Heating:Electric,                  !- Reheat Coil Object Type
  Coil Heating Electric 15,               !- Reheat Coil Name
  Autosize,                               !- Maximum Hot Water or Steam Flow Rate {m3/s}
  0,                                      !- Minimum Hot Water or Steam Flow Rate {m3/s}
  Air Terminal Single Duct VAV Reheat 15 Outlet Air Node, !- Air Outlet Node Name
  0.001,                                  !- Convergence Tolerance
  Normal,                                 !- Damper Heating Action
  Autocalculate,                          !- Maximum Flow per Zone Floor Area During Reheat {m3/s-m2}
  0.5,                                    !- Maximum Flow Fraction During Reheat
  43;                                     !- Maximum Reheat Air Temperature {C}

Coil:Heating:Electric,
  Coil Heating Electric 15,               !- Name
  Always On Discrete,                     !- Availability Schedule Name
  1,                                      !- Efficiency
  12781.9447517395,                       !- Nominal Capacity {W}
  Air Terminal Single Duct VAV Reheat 15 Damper Outlet, !- Air Inlet Node Name
  Air Terminal Single Duct VAV Reheat 15 Outlet Air Node; !- Air Outlet Node Name

ZoneHVAC:Baseboard:Convective:Electric,
  ZoneHVACBaseboardConvectiveElectric 14, !- Name
  Always On Discrete,                     !- Availability Schedule Name
  ,                                       !- Heating Design Capacity Method
  Autosize,                               !- Heating Design Capacity {W}
  ,                                       !- Heating Design Capacity Per Floor Area {W/m2}
  ,                                       !- Fraction of Autosized Heating Design Capacity
  1;                                      !- Efficiency

ZoneHVAC:EquipmentList,
  ALL_ST=Office open plan_FL=Building Story 3_SCH=A 4 Equipment List, !- Name
  SequentialLoad,                         !- Load Distribution Scheme
  ZoneHVAC:AirDistributionUnit,           !- Zone Equipment Object Type 1
  ADU Air Terminal Single Duct VAV Reheat 15, !- Zone Equipment Name 1
  1,                                      !- Zone Equipment Cooling Sequence 1
  1,                                      !- Zone Equipment Heating or No-Load Sequence 1
  ,                                       !- Zone Equipment Sequential Cooling Fraction Schedule Name 1
  ,                                       !- Zone Equipment Sequential Heating Fraction Schedule Name 1
  ZoneHVAC:Baseboard:Convective:Electric, !- Zone Equipment Object Type 2
  ZoneHVACBaseboardConvectiveElectric 14, !- Zone Equipment Name 2
  2,                                      !- Zone Equipment Cooling Sequence 2
  2,                                      !- Zone Equipment Heating or No-Load Sequence 2
  ,                                       !- Zone Equipment Sequential Cooling Fraction Schedule Name 2
  ;                                       !- Zone Equipment Sequential Heating Fraction Schedule Name 2

Sizing:Zone,
  ALL_ST=Office open plan_FL=Building Story 3_SCH=A 4, !- Zone or ZoneList Name
  TemperatureDifference,                  !- Zone Cooling Design Supply Air Temperature Input Method
  13,                                     !- Zone Cooling Design Supply Air Temperature {C}
  11,                                     !- Zone Cooling Design Supply Air Temperature Difference {deltaC}
  TemperatureDifference,                  !- Zone Heating Design Supply Air Temperature Input Method
  43,                                     !- Zone Heating Design Supply Air Temperature {C}
  21,                                     !- Zone Heating Design Supply Air Temperature Difference {deltaC}
  0.0085,                                 !- Zone Cooling Design Supply Air Humidity Ratio {kgWater/kgDryAir}
  0.008,                                  !- Zone Heating Design Supply Air Humidity Ratio {kgWater/kgDryAir}
  ALL_ST=Office open plan_FL=Building Story 3_SCH=A 4 DSOA Space List, !- Design Specification Outdoor Air Object Name
  1.3,                                    !- Zone Heating Sizing Factor
  1.1,                                    !- Zone Cooling Sizing Factor
  DesignDay,                              !- Cooling Design Air Flow Method
  0,                                      !- Cooling Design Air Flow Rate {m3/s}
  0.000762,                               !- Cooling Minimum Air Flow per Zone Floor Area {m3/s-m2}
  0,                                      !- Cooling Minimum Air Flow {m3/s}
  0,                                      !- Cooling Minimum Air Flow Fraction
  DesignDay,                              !- Heating Design Air Flow Method
  0,                                      !- Heating Design Air Flow Rate {m3/s}
  0.002032,                               !- Heating Maximum Air Flow per Zone Floor Area {m3/s-m2}
  0.1415762,                              !- Heating Maximum Air Flow {m3/s}
  0.3,                                    !- Heating Maximum Air Flow Fraction
  ,                                       !- Design Specification Zone Air Distribution Object Name
  No,                                     !- Account for Dedicated Outdoor Air System
  ,                                       !- Dedicated Outdoor Air System Control Strategy
  ,                                       !- Dedicated Outdoor Air Low Setpoint Temperature for Design {C}
  ,                                       !- Dedicated Outdoor Air High Setpoint Temperature for Design {C}
  Sensible Load Only No Latent Load,      !- Zone Load Sizing Method
  HumidityRatioDifference,                !- Zone Latent Cooling Design Supply Air Humidity Ratio Input Method
  ,                                       !- Zone Dehumidification Design Supply Air Humidity Ratio {kgWater/kgDryAir}
  0.005,                                  !- Zone Cooling Design Supply Air Humidity Ratio Difference {kgWater/kgDryAir}
  HumidityRatioDifference,                !- Zone Latent Heating Design Supply Air Humidity Ratio Input Method
  ,                                       !- Zone Humidification Design Supply Air Humidity Ratio {kgWater/kgDryAir}
  0.005,                                  !- Zone Humidification Design Supply Air Humidity Ratio Difference {kgWater/kgDryAir}
  ,                                       !- Zone Humidistat Dehumidification Set Point Schedule Name
  ,                                       !- Zone Humidistat Humidification Set Point Schedule Name
  Coincident;                             !- Type of Space Sum to Use

DesignSpecification:OutdoorAir:SpaceList,
  ALL_ST=Office open plan_FL=Building Story 3_SCH=A 4 DSOA Space List, !- Name
  Perimeter_top_ZN_4,                     !- Space Name 1
  Space Function Office open plan Ventilation; !- Space Design Specification Outdoor Air Object Name 1

SimulationControl,
  Yes,                                    !- Do Zone Sizing Calculation
  Yes,                                    !- Do System Sizing Calculation
  Yes,                                    !- Do Plant Sizing Calculation
  No,                                     !- Run Simulation for Sizing Periods
  Yes,                                    !- Run Simulation for Weather File Run Periods
  No,                                     !- Do HVAC Sizing Simulation for Sizing Periods
  1;                                      !- Maximum Number of HVAC Sizing Simulation Passes

ConvergenceLimits,
  2,                                      !- Minimum System Timestep {minutes}
  25;                                     !- Maximum HVAC Iterations

HeatBalanceAlgorithm,
  ConductionTransferFunction,             !- Algorithm
  200;                                    !- Surface Temperature Upper Limit {C}

RunPeriod,
  Run Period 1,                           !- Name
  1,                                      !- Begin Month
  1,                                      !- Begin Day of Month
  2006,                                   !- Begin Year
  12,                                     !- End Month
  31,                                     !- End Day of Month
  2006,                                   !- End Year
  Sunday,                                 !- Day of Week for Start Day
  No,                                     !- Use Weather File Holidays and Special Days
  No,                                     !- Use Weather File Daylight Saving Period
  No,                                     !- Apply Weekend Holiday Rule
  Yes,                                    !- Use Weather File Rain Indicators
  Yes;                                    !- Use Weather File Snow Indicators

ShadowCalculation,
  PolygonClipping,                        !- Shading Calculation Method
  Periodic,                               !- Shading Calculation Update Frequency Method
  7,                                      !- Shading Calculation Update Frequency
  15000,                                  !- Maximum Figures in Shadow Overlap Calculations
  SutherlandHodgman,                      !- Polygon Clipping Algorithm
  512,                                    !- Pixel Counting Resolution
  SimpleSkyDiffuseModeling,               !- Sky Diffuse Modeling Algorithm
  No,                                     !- Output External Shading Calculation Results
  No,                                     !- Disable Self-Shading Within Shading Zone Groups
  No;                                     !- Disable Self-Shading From Shading Zone Groups to Other Zones

SurfaceConvectionAlgorithm:Inside,
  TARP;                                   !- Algorithm

SurfaceConvectionAlgorithm:Outside,
  TARP;                                   !- Algorithm

Sizing:Parameters,
  1.3,                                    !- Heating Sizing Factor
  1.1;                                    !- Cooling Sizing Factor

Output:Table:SummaryReports,
  AllSummary;                             !- Report Name 1

GlobalGeometryRules,
  UpperLeftCorner,                        !- Starting Vertex Position
  Counterclockwise,                       !- Vertex Entry Direction
  Relative,                               !- Coordinate System
  Relative,                               !- Daylighting Reference Point Coordinate System
  Relative;                               !- Rectangular Surface Coordinate System

Material,
  1/2IN Gypsum,                           !- Name
  Smooth,                                 !- Roughness
  0.0127,                                 !- Thickness {m}
  0.16,                                   !- Conductivity {W/m-K}
  784.9,                                  !- Density {kg/m3}
  830.000000000001,                       !- Specific Heat {J/kg-K}
  0.9,                                    !- Thermal Absorptance
  0.4,                                    !- Solar Absorptance
  0.4;                                    !- Visible Absorptance

Material,
  1/2IN Gypsum 1,                         !- Name
  Smooth,                                 !- Roughness
  0.0127,                                 !- Thickness {m}
  0.16,                                   !- Conductivity {W/m-K}
  784.9,                                  !- Density {kg/m3}
  830.000000000001,                       !- Specific Heat {J/kg-K}
  0.9,                                    !- Thermal Absorptance
  0.4,                                    !- Solar Absorptance
  0.4;                                    !- Visible Absorptance

Material,
  100mm Normalweight concrete floor,      !- Name
  MediumSmooth,                           !- Roughness
  0.1016,                                 !- Thickness {m}
  2.31,                                   !- Conductivity {W/m-K}
  2322,                                   !- Density {kg/m3}
  832,                                    !- Specific Heat {J/kg-K}
  0.9,                                    !- Thermal Absorptance
  0.7,                                    !- Solar Absorptance
  0.7;                                    !- Visible Absorptance

Material,
  100mm Normalweight concrete floor 1,    !- Name
  MediumSmooth,                           !- Roughness
  0.1016,                                 !- Thickness {m}
  2.31,                                   !- Conductivity {W/m-K}
  2322,                                   !- Density {kg/m3}
  832,                                    !- Specific Heat {J/kg-K}
  0.9,                                    !- Thermal Absorptance
  0.7,                                    !- Solar Absorptance
  0.7;                                    !- Visible Absorptance

Material,
  1IN Stucco,                             !- Name
  Smooth,                                 !- Roughness
  0.0253,                                 !- Thickness {m}
  0.691799999999999,                      !- Conductivity {W/m-K}
  1858,                                   !- Density {kg/m3}
  836.999999999999,                       !- Specific Heat {J/kg-K}
  0.9,                                    !- Thermal Absorptance
  0.7,                                    !- Solar Absorptance
  0.92;                                   !- Visible Absorptance

Material,
  1IN Stucco 1,                           !- Name
  Smooth,                                 !- Roughness
  0.0253,                                 !- Thickness {m}
  0.691799999999999,                      !- Conductivity {W/m-K}
  1858,                                   !- Density {kg/m3}
  836.999999999999,                       !- Specific Heat {J/kg-K}
  0.9,                                    !- Thermal Absorptance
  0.7,                                    !- Solar Absorptance
  0.92;                                   !- Visible Absorptance

Material,
  4 in. Normalweight Concrete Floor,      !- Name
  MediumRough,                            !- Roughness
  0.1016,                                 !- Thickness {m}
  2.31,                                   !- Conductivity {W/m-K}
  2321.99999999999,                       !- Density {kg/m3}
  831.999999999997,                       !- Specific Heat {J/kg-K}
  0.9,                                    !- Thermal Absorptance
  0.7,                                    !- Solar Absorptance
  0.7;                                    !- Visible Absorptance

Material,
  4 in. Normalweight Concrete Floor 1,    !- Name
  MediumRough,                            !- Roughness
  0.1016,                                 !- Thickness {m}
  2.31,                                   !- Conductivity {W/m-K}
  2321.99999999999,                       !- Density {kg/m3}
  831.999999999997,                       !- Specific Heat {J/kg-K}
  0.9,                                    !- Thermal Absorptance
  0.7,                                    !- Solar Absorptance
  0.7;                                    !- Visible Absorptance

Material,
  6 in. Normalweight Concrete Floor,      !- Name
  MediumRough,                            !- Roughness
  0.1524,                                 !- Thickness {m}
  2.31,                                   !- Conductivity {W/m-K}
  2321.99999999999,                       !- Density {kg/m3}
  831.999999999997,                       !- Specific Heat {J/kg-K}
  0.9,                                    !- Thermal Absorptance
  0.7,                                    !- Solar Absorptance
  0.7;                                    !- Visible Absorptance

Material,
  6 in. Normalweight Concrete Floor 1,    !- Name
  MediumRough,                            !- Roughness
  0.1524,                                 !- Thickness {m}
  2.31,                                   !- Conductivity {W/m-K}
  2321.99999999999,                       !- Density {kg/m3}
  831.999999999997,                       !- Specific Heat {J/kg-K}
  0.9,                                    !- Thermal Absorptance
  0.7,                                    !- Solar Absorptance
  0.7;                                    !- Visible Absorptance

Material,
  6 in. Normalweight Concrete Floor 2,    !- Name
  MediumRough,                            !- Roughness
  0.1524,                                 !- Thickness {m}
  2.31,                                   !- Conductivity {W/m-K}
  2321.99999999999,                       !- Density {kg/m3}
  831.999999999997,                       !- Specific Heat {J/kg-K}
  0.9,                                    !- Thermal Absorptance
  0.7,                                    !- Solar Absorptance
  0.7;                                    !- Visible Absorptance

Material,
  6 in. Normalweight Concrete Floor 3,    !- Name
  MediumRough,                            !- Roughness
  0.1524,                                 !- Thickness {m}
  2.31,                                   !- Conductivity {W/m-K}
  2321.99999999999,                       !- Density {kg/m3}
  831.999999999997,                       !- Specific Heat {J/kg-K}
  0.9,                                    !- Thermal Absorptance
  0.7,                                    !- Solar Absorptance
  0.7;                                    !- Visible Absorptance

Material,
  8IN CONCRETE HW RefBldg,                !- Name
  Rough,                                  !- Roughness
  0.2032,                                 !- Thickness {m}
  1.311,                                  !- Conductivity {W/m-K}
  2240,                                   !- Density {kg/m3}
  836.800000000001,                       !- Specific Heat {J/kg-K}
  0.9,                                    !- Thermal Absorptance
  0.7,                                    !- Solar Absorptance
  0.7;                                    !- Visible Absorptance

Material,
  8IN CONCRETE HW RefBldg 1,              !- Name
  Rough,                                  !- Roughness
  0.2032,                                 !- Thickness {m}
  1.311,                                  !- Conductivity {W/m-K}
  2240,                                   !- Density {kg/m3}
  836.800000000001,                       !- Specific Heat {J/kg-K}
  0.9,                                    !- Thermal Absorptance
  0.7,                                    !- Solar Absorptance
  0.7;                                    !- Visible Absorptance

Material,
  Expanded Polystyrene,                   !- Name
  MediumSmooth,                           !- Roughness
  0.0363958681740979,                     !- Thickness {m}
  0.029,                                  !- Conductivity {W/m-K}
  29,                                     !- Density {kg/m3}
  1210,                                   !- Specific Heat {J/kg-K}
  0.9,                                    !- Thermal Absorptance
  0.7,                                    !- Solar Absorptance
  0.7;                                    !- Visible Absorptance

Material,
  F08 Metal surface,                      !- Name
  Smooth,                                 !- Roughness
  0.0008,                                 !- Thickness {m}
  45.2800000000001,                       !- Conductivity {W/m-K}
  7823.99999999999,                       !- Density {kg/m3}
  500,                                    !- Specific Heat {J/kg-K}
  0.9,                                    !- Thermal Absorptance
  0.7,                                    !- Solar Absorptance
  0.7;                                    !- Visible Absorptance

Material,
  F08 Metal surface 1,                    !- Name
  Smooth,                                 !- Roughness
  0.0008,                                 !- Thickness {m}
  45.2800000000001,                       !- Conductivity {W/m-K}
  7823.99999999999,                       !- Density {kg/m3}
  500,                                    !- Specific Heat {J/kg-K}
  0.9,                                    !- Thermal Absorptance
  0.7,                                    !- Solar Absorptance
  0.7;                                    !- Visible Absorptance

Material,
  G01 13mm gypsum board,                  !- Name
  Smooth,                                 !- Roughness
  0.0127,                                 !- Thickness {m}
  0.16,                                   !- Conductivity {W/m-K}
  800,                                    !- Density {kg/m3}
  1090,                                   !- Specific Heat {J/kg-K}
  0.9,                                    !- Thermal Absorptance
  0.7,                                    !- Solar Absorptance
  0.5;                                    !- Visible Absorptance

Material,
  G01 13mm gypsum board 1,                !- Name
  Smooth,                                 !- Roughness
  0.0127,                                 !- Thickness {m}
  0.16,                                   !- Conductivity {W/m-K}
  800,                                    !- Density {kg/m3}
  1090,                                   !- Specific Heat {J/kg-K}
  0.9,                                    !- Thermal Absorptance
  0.7,                                    !- Solar Absorptance
  0.5;                                    !- Visible Absorptance

Material,
  G05 25mm wood,                          !- Name
  MediumSmooth,                           !- Roughness
  0.0254,                                 !- Thickness {m}
  0.15,                                   !- Conductivity {W/m-K}
  608,                                    !- Density {kg/m3}
  1630,                                   !- Specific Heat {J/kg-K}
  0.9,                                    !- Thermal Absorptance
  0.5,                                    !- Solar Absorptance
  0.5;                                    !- Visible Absorptance

Material,
  M10 200mm concrete block basement wall, !- Name
  MediumRough,                            !- Roughness
  0.2032,                                 !- Thickness {m}
  1.326,                                  !- Conductivity {W/m-K}
  1842,                                   !- Density {kg/m3}
  912,                                    !- Specific Heat {J/kg-K}
  0.9,                                    !- Thermal Absorptance
  0.7,                                    !- Solar Absorptance
  0.7;                                    !- Visible Absorptance

Material,
  Metal Roof Surface,                     !- Name
  Smooth,                                 !- Roughness
  0.000799999999999998,                   !- Thickness {m}
  45.2799999999999,                       !- Conductivity {W/m-K}
  7823.99999999999,                       !- Density {kg/m3}
  499.999999999996,                       !- Specific Heat {J/kg-K}
  0.9,                                    !- Thermal Absorptance
  0.7,                                    !- Solar Absorptance
  0.7;                                    !- Visible Absorptance

Material,
  Metal Roof Surface 1,                   !- Name
  Smooth,                                 !- Roughness
  0.000799999999999998,                   !- Thickness {m}
  45.2799999999999,                       !- Conductivity {W/m-K}
  7823.99999999999,                       !- Density {kg/m3}
  499.999999999996,                       !- Specific Heat {J/kg-K}
  0.9,                                    !- Thermal Absorptance
  0.7,                                    !- Solar Absorptance
  0.7;                                    !- Visible Absorptance

Material:NoMass,
  CP02 CARPET PAD,                        !- Name
  VeryRough,                              !- Roughness
  0.21648,                                !- Thermal Resistance {m2-K/W}
  0.9,                                    !- Thermal Absorptance
  0.7,                                    !- Solar Absorptance
  0.8;                                    !- Visible Absorptance

Material:NoMass,
  Nonres_Floor_Insulation,                !- Name
  MediumSmooth,                           !- Roughness
  2.88291975297193,                       !- Thermal Resistance {m2-K/W}
  0.9,                                    !- Thermal Absorptance
  0.7,                                    !- Solar Absorptance
  0.7;                                    !- Visible Absorptance

Material:NoMass,
  Typical Carpet Pad,                     !- Name
  Smooth,                                 !- Roughness
  0.216479986995276,                      !- Thermal Resistance {m2-K/W}
  0.9,                                    !- Thermal Absorptance
  0.7,                                    !- Solar Absorptance
  0.8;                                    !- Visible Absorptance

Material:NoMass,
  Typical Carpet Pad 1,                   !- Name
  Smooth,                                 !- Roughness
  0.216479986995276,                      !- Thermal Resistance {m2-K/W}
  0.9,                                    !- Thermal Absorptance
  0.7,                                    !- Solar Absorptance
  0.8;                                    !- Visible Absorptance

Material:NoMass,
  Typical Carpet Pad 2,                   !- Name
  Smooth,                                 !- Roughness
  1.25502993703786,                       !- Thermal Resistance {m2-K/W}
  0.9,                                    !- Thermal Absorptance
  0.7,                                    !- Solar Absorptance
  0.8;                                    !- Visible Absorptance

Material:NoMass,
  Typical Carpet Pad 3,                   !- Name
  Smooth,                                 !- Roughness
  3.45515273458935,                       !- Thermal Resistance {m2-K/W}
  0.9,                                    !- Thermal Absorptance
  0.7,                                    !- Solar Absorptance
  0.8;                                    !- Visible Absorptance

Material:NoMass,
  Typical Carpet Pad 4,                   !- Name
  Smooth,                                 !- Roughness
  3.45515273458935,                       !- Thermal Resistance {m2-K/W}
  0.9,                                    !- Thermal Absorptance
  0.7,                                    !- Solar Absorptance
  0.8;                                    !- Visible Absorptance

Material:NoMass,
  Typical Insulation,                     !- Name
  Smooth,                                 !- Roughness
  0.101874652714525,                      !- Thermal Resistance {m2-K/W}
  0.9,                                    !- Thermal Absorptance
  0.7,                                    !- Solar Absorptance
  0.7;                                    !- Visible Absorptance

Material:NoMass,
  Typical Insulation 1,                   !- Name
  Smooth,                                 !- Roughness
  6.98591414061624,                       !- Thermal Resistance {m2-K/W}
  0.9,                                    !- Thermal Absorptance
  0.7,                                    !- Solar Absorptance
  0.7;                                    !- Visible Absorptance

Material:NoMass,
  Typical Insulation 2,                   !- Name
  Smooth,                                 !- Roughness
  3.17733341258058,                       !- Thermal Resistance {m2-K/W}
  0.9,                                    !- Thermal Absorptance
  0.7,                                    !- Solar Absorptance
  0.7;                                    !- Visible Absorptance

Material:NoMass,
  Typical Insulation 3,                   !- Name
  Smooth,                                 !- Roughness
  4.99998233215548,                       !- Thermal Resistance {m2-K/W}
  0.9,                                    !- Thermal Absorptance
  0.7,                                    !- Solar Absorptance
  0.7;                                    !- Visible Absorptance

Material:NoMass,
  Typical Insulation 4,                   !- Name
  Smooth,                                 !- Roughness
  0.578017014236402,                      !- Thermal Resistance {m2-K/W}
  0.9,                                    !- Thermal Absorptance
  0.7,                                    !- Solar Absorptance
  0.7;                                    !- Visible Absorptance

Material:NoMass,
  Typical Insulation 5,                   !- Name
  Smooth,                                 !- Roughness
  0.578034682080925,                      !- Thermal Resistance {m2-K/W}
  0.9,                                    !- Thermal Absorptance
  0.7,                                    !- Solar Absorptance
  0.7;                                    !- Visible Absorptance

WindowMaterial:SimpleGlazingSystem,
  SimpleGlazing,                          !- Name
  2.2,                                    !- U-Factor {W/m2-K}
  0.6,                                    !- Solar Heat Gain Coefficient
  0.21;                                   !- Visible Transmittance

WindowMaterial:SimpleGlazingSystem,
  SimpleGlazing:U=0.173 SHGC=0.600,       !- Name
  1.73,                                   !- U-Factor {W/m2-K}
  0.6,                                    !- Solar Heat Gain Coefficient
  0.21;                                   !- Visible Transmittance

WindowMaterial:SimpleGlazingSystem,
  SimpleGlazing:U=0.241 SHGC=0.600,       !- Name
  2.41,                                   !- U-Factor {W/m2-K}
  0.6,                                    !- Solar Heat Gain Coefficient
  0.21;                                   !- Visible Transmittance

WindowMaterial:SimpleGlazingSystem,
  SimpleGlazing:U=0.280 SHGC=0.600,       !- Name
  2.8,                                    !- U-Factor {W/m2-K}
  0.6,                                    !- Solar Heat Gain Coefficient
  0.21;                                   !- Visible Transmittance

Construction,
  Basement Floor construction,            !- Name
  M10 200mm concrete block basement wall, !- Layer 1
  CP02 CARPET PAD;                        !- Layer 2

Construction,
  Basement Wall construction,             !- Name
  M10 200mm concrete block basement wall; !- Layer 1

Construction,
  BTAP-Ext-DaylightDiffuser,              !- Name
  SimpleGlazing;                          !- Layer 1

Construction,
  BTAP-Ext-DaylightDiffuser:U=0.241 SHGC=0.600, !- Name
  SimpleGlazing:U=0.241 SHGC=0.600;       !- Layer 1

Construction,
  BTAP-Ext-DaylightDomes,                 !- Name
  SimpleGlazing;                          !- Layer 1

Construction,
  BTAP-Ext-DaylightDomes:U=0.241 SHGC=0.600, !- Name
  SimpleGlazing:U=0.241 SHGC=0.600;       !- Layer 1

Construction,
  BTAP-Ext-Door,                          !- Name
  F08 Metal surface,                      !- Layer 1
  Typical Insulation;                     !- Layer 2

Construction,
  BTAP-Ext-Door:U-1.73,                   !- Name
  F08 Metal surface 1,                    !- Layer 1
  Typical Insulation 4;                   !- Layer 2

Construction,
  BTAP-Ext-FixedWindow,                   !- Name
  SimpleGlazing;                          !- Layer 1

Construction,
  BTAP-Ext-FixedWindow:U=0.280 SHGC=0.600, !- Name
  SimpleGlazing:U=0.280 SHGC=0.600;       !- Layer 1

Construction,
  BTAP-Ext-Floor-Mass,                    !- Name
  Typical Insulation,                     !- Layer 1
  4 in. Normalweight Concrete Floor,      !- Layer 2
  Typical Carpet Pad;                     !- Layer 3

Construction,
  BTAP-Ext-Floor-Mass:U-0.138,            !- Name
  Typical Insulation 1,                   !- Layer 1
  4 in. Normalweight Concrete Floor 1,    !- Layer 2
  Typical Carpet Pad 1;                   !- Layer 3

Construction,
  BTAP-Ext-GlassDoors,                    !- Name
  SimpleGlazing;                          !- Layer 1

Construction,
  BTAP-Ext-GlassDoors:U=0.173 SHGC=0.600, !- Name
  SimpleGlazing:U=0.173 SHGC=0.600;       !- Layer 1

Construction,
  BTAP-Ext-OverHeadDoor,                  !- Name
  Typical Insulation;                     !- Layer 1

Construction,
  BTAP-Ext-OverHeadDoor:U-1.73,           !- Name
  Typical Insulation 5;                   !- Layer 1

Construction,
  BTAP-Ext-Roof-Metal,                    !- Name
  Metal Roof Surface,                     !- Layer 1
  Typical Insulation;                     !- Layer 2

Construction,
  BTAP-Ext-Roof-Metal:U-0.2,              !- Name
  Metal Roof Surface 1,                   !- Layer 1
  Typical Insulation 3;                   !- Layer 2

Construction,
  BTAP-Ext-Skylights,                     !- Name
  SimpleGlazing;                          !- Layer 1

Construction,
  BTAP-Ext-Skylights:U=0.241 SHGC=0.600,  !- Name
  SimpleGlazing:U=0.241 SHGC=0.600;       !- Layer 1

Construction,
  BTAP-Ext-Wall-Mass,                     !- Name
  1IN Stucco,                             !- Layer 1
  8IN CONCRETE HW RefBldg,                !- Layer 2
  Typical Insulation,                     !- Layer 3
  1/2IN Gypsum;                           !- Layer 4

Construction,
  BTAP-Ext-Wall-Mass:U-0.29,              !- Name
  1IN Stucco 1,                           !- Layer 1
  8IN CONCRETE HW RefBldg 1,              !- Layer 2
  Typical Insulation 2,                   !- Layer 3
  1/2IN Gypsum 1;                         !- Layer 4

Construction,
  BTAP-Grnd-Floor-Mass,                   !- Name
  6 in. Normalweight Concrete Floor,      !- Layer 1
  Typical Carpet Pad;                     !- Layer 2

Construction,
  BTAP-Grnd-Floor-Mass:U-0.757,           !- Name
  6 in. Normalweight Concrete Floor 1,    !- Layer 1
  Typical Carpet Pad 2;                   !- Layer 2

Construction,
  BTAP-Grnd-Floor-Mass:U-0.757_std,       !- Name
  6 in. Normalweight Concrete Floor 1,    !- Layer 1
  Expanded Polystyrene;                   !- Layer 2

Construction,
  BTAP-Grnd-Roof-Mass,                    !- Name
  6 in. Normalweight Concrete Floor,      !- Layer 1
  Typical Carpet Pad;                     !- Layer 2

Construction,
  BTAP-Grnd-Roof-Mass:U-0.284,            !- Name
  6 in. Normalweight Concrete Floor 3,    !- Layer 1
  Typical Carpet Pad 4;                   !- Layer 2

Construction,
  BTAP-Grnd-Wall-Mass,                    !- Name
  6 in. Normalweight Concrete Floor,      !- Layer 1
  Typical Carpet Pad;                     !- Layer 2

Construction,
  BTAP-Grnd-Wall-Mass:U-0.284,            !- Name
  6 in. Normalweight Concrete Floor 2,    !- Layer 1
  Typical Carpet Pad 3;                   !- Layer 2

Construction,
  BTAP-Int-Ceiling,                       !- Name
  Typical Carpet Pad,                     !- Layer 1
  100mm Normalweight concrete floor 1;    !- Layer 2

Construction,
  BTAP-Int-Door,                          !- Name
  G05 25mm wood;                          !- Layer 1

Construction,
  BTAP-Int-Floor,                         !- Name
  100mm Normalweight concrete floor 1,    !- Layer 1
  Typical Carpet Pad;                     !- Layer 2

Construction,
  BTAP-Int-Partition,                     !- Name
  G05 25mm wood;                          !- Layer 1

Construction,
  BTAP-Int-Wall,                          !- Name
  G01 13mm gypsum board 1,                !- Layer 1
  G01 13mm gypsum board 1;                !- Layer 2

Construction,
  BTAP-Int-Window,                        !- Name
  SimpleGlazing;                          !- Layer 1

Construction,
  Floor Adiabatic construction,           !- Name
  CP02 CARPET PAD,                        !- Layer 1
  100mm Normalweight concrete floor,      !- Layer 2
  Nonres_Floor_Insulation;                !- Layer 3

Construction,
  Wall Adiabatic construction,            !- Name
  G01 13mm gypsum board,                  !- Layer 1
  G01 13mm gypsum board;                  !- Layer 2

Schedule:Constant,
  Always Off Discrete,                    !- Name
  OnOff 1,                                !- Schedule Type Limits Name
  0;                                      !- Hourly Value

Schedule:Constant,
  Always On Continuous,                   !- Name
  Fractional 1,                           !- Schedule Type Limits Name
  1;                                      !- Hourly Value

ScheduleTypeLimits,
  Always On Discrete Limits,              !- Name
  0,                                      !- Lower Limit Value {BasedOnField A3}
  1,                                      !- Upper Limit Value {BasedOnField A3}
  Discrete,                               !- Numeric Type
  availability;                           !- Unit Type

ScheduleTypeLimits,
  Fractional 1,                           !- Name
  0,                                      !- Lower Limit Value {BasedOnField A3}
  1,                                      !- Upper Limit Value {BasedOnField A3}
  Continuous;                             !- Numeric Type

ScheduleTypeLimits,
  OnOff,                                  !- Name
  0,                                      !- Lower Limit Value {BasedOnField A3}
  1,                                      !- Upper Limit Value {BasedOnField A3}
  Discrete,                               !- Numeric Type
  availability;                           !- Unit Type

ScheduleTypeLimits,
  OnOff 1,                                !- Name
  0,                                      !- Lower Limit Value {BasedOnField A3}
  1,                                      !- Upper Limit Value {BasedOnField A3}
  Discrete,                               !- Numeric Type
  availability;                           !- Unit Type

ScheduleTypeLimits,
  TEMPERATURE 1,                          !- Name
  ,                                       !- Lower Limit Value {BasedOnField A3}
  ,                                       !- Upper Limit Value {BasedOnField A3}
  Continuous,                             !- Numeric Type
  temperature;                            !- Unit Type

ScheduleTypeLimits,
  TEMPERATURE 2,                          !- Name
  ,                                       !- Lower Limit Value {BasedOnField A3}
  ,                                       !- Upper Limit Value {BasedOnField A3}
  Continuous,                             !- Numeric Type
  temperature;                            !- Unit Type

Schedule:Day:Interval,
  Economizer Max OA Fraction 100 pct Default, !- Name
  ,                                       !- Schedule Type Limits Name
  No,                                     !- Interpolate to Timestep
  24:00,                                  !- Time 1 {hh:mm}
  1;                                      !- Value Until Time 1

Schedule:Day:Interval,
  Fraction Latent - 0.05 Default,         !- Name
  Fractional,                             !- Schedule Type Limits Name
  No,                                     !- Interpolate to Timestep
  24:00,                                  !- Time 1 {hh:mm}
  0.05;                                   !- Value Until Time 1

Schedule:Day:Interval,
  Fraction Sensible - 0.2 Default,        !- Name
  Fractional,                             !- Schedule Type Limits Name
  No,                                     !- Interpolate to Timestep
  24:00,                                  !- Time 1 {hh:mm}
  0.2;                                    !- Value Until Time 1

Schedule:Day:Interval,
  Mixed Water At Faucet Temp - 140F Default, !- Name
  Temperature,                            !- Schedule Type Limits Name
  No,                                     !- Interpolate to Timestep
  24:00,                                  !- Time 1 {hh:mm}
  60;                                     !- Value Until Time 1

Schedule:Day:Interval,
  NECB-A-Service Water Heating Default,   !- Name
  Fractional,                             !- Schedule Type Limits Name
  No,                                     !- Interpolate to Timestep
  07:00,                                  !- Time 1 {hh:mm}
  0.05,                                   !- Value Until Time 1
  08:00,                                  !- Time 2 {hh:mm}
  0.1,                                    !- Value Until Time 2
  10:00,                                  !- Time 3 {hh:mm}
  0.5,                                    !- Value Until Time 3
  16:00,                                  !- Time 4 {hh:mm}
  0.9,                                    !- Value Until Time 4
  17:00,                                  !- Time 5 {hh:mm}
  0.7,                                    !- Value Until Time 5
  18:00,                                  !- Time 6 {hh:mm}
  0.5,                                    !- Value Until Time 6
  19:00,                                  !- Time 7 {hh:mm}
  0.3,                                    !- Value Until Time 7
  22:00,                                  !- Time 8 {hh:mm}
  0.2,                                    !- Value Until Time 8
  24:00,                                  !- Time 9 {hh:mm}
  0.05;                                   !- Value Until Time 9

Schedule:Day:Interval,
  NECB-A-Service Water Heating Default|Wkdy Day, !- Name
  Fractional,                             !- Schedule Type Limits Name
  No,                                     !- Interpolate to Timestep
  07:00,                                  !- Time 1 {hh:mm}
  0.05,                                   !- Value Until Time 1
  08:00,                                  !- Time 2 {hh:mm}
  0.1,                                    !- Value Until Time 2
  10:00,                                  !- Time 3 {hh:mm}
  0.5,                                    !- Value Until Time 3
  16:00,                                  !- Time 4 {hh:mm}
  0.9,                                    !- Value Until Time 4
  17:00,                                  !- Time 5 {hh:mm}
  0.7,                                    !- Value Until Time 5
  18:00,                                  !- Time 6 {hh:mm}
  0.5,                                    !- Value Until Time 6
  19:00,                                  !- Time 7 {hh:mm}
  0.3,                                    !- Value Until Time 7
  22:00,                                  !- Time 8 {hh:mm}
  0.2,                                    !- Value Until Time 8
  24:00,                                  !- Time 9 {hh:mm}
  0.05;                                   !- Value Until Time 9

Schedule:Day:Interval,
  NECB-A-Service Water Heating Sat Day,   !- Name
  Fractional,                             !- Schedule Type Limits Name
  No,                                     !- Interpolate to Timestep
  24:00,                                  !- Time 1 {hh:mm}
  0.05;                                   !- Value Until Time 1

Schedule:Day:Interval,
  NECB-A-Service Water Heating Sun|Hol Day, !- Name
  Fractional,                             !- Schedule Type Limits Name
  No,                                     !- Interpolate to Timestep
  24:00,                                  !- Time 1 {hh:mm}
  0.05;                                   !- Value Until Time 1

Schedule:Day:Interval,
  satCHW Temp,                            !- Name
  TEMPERATURE 1,                          !- Schedule Type Limits Name
  No,                                     !- Interpolate to Timestep
  01:00,                                  !- Time 1 {hh:mm}
  7,                                      !- Value Until Time 1
  02:00,                                  !- Time 2 {hh:mm}
  7,                                      !- Value Until Time 2
  03:00,                                  !- Time 3 {hh:mm}
  7,                                      !- Value Until Time 3
  04:00,                                  !- Time 4 {hh:mm}
  7,                                      !- Value Until Time 4
  05:00,                                  !- Time 5 {hh:mm}
  7,                                      !- Value Until Time 5
  06:00,                                  !- Time 6 {hh:mm}
  7,                                      !- Value Until Time 6
  07:00,                                  !- Time 7 {hh:mm}
  7,                                      !- Value Until Time 7
  08:00,                                  !- Time 8 {hh:mm}
  7,                                      !- Value Until Time 8
  09:00,                                  !- Time 9 {hh:mm}
  7,                                      !- Value Until Time 9
  10:00,                                  !- Time 10 {hh:mm}
  7,                                      !- Value Until Time 10
  11:00,                                  !- Time 11 {hh:mm}
  7,                                      !- Value Until Time 11
  12:00,                                  !- Time 12 {hh:mm}
  7,                                      !- Value Until Time 12
  13:00,                                  !- Time 13 {hh:mm}
  7,                                      !- Value Until Time 13
  14:00,                                  !- Time 14 {hh:mm}
  7,                                      !- Value Until Time 14
  15:00,                                  !- Time 15 {hh:mm}
  7,                                      !- Value Until Time 15
  16:00,                                  !- Time 16 {hh:mm}
  7,                                      !- Value Until Time 16
  17:00,                                  !- Time 17 {hh:mm}
  7,                                      !- Value Until Time 17
  18:00,                                  !- Time 18 {hh:mm}
  7,                                      !- Value Until Time 18
  19:00,                                  !- Time 19 {hh:mm}
  7,                                      !- Value Until Time 19
  20:00,                                  !- Time 20 {hh:mm}
  7,                                      !- Value Until Time 20
  21:00,                                  !- Time 21 {hh:mm}
  7,                                      !- Value Until Time 21
  22:00,                                  !- Time 22 {hh:mm}
  7,                                      !- Value Until Time 22
  23:00,                                  !- Time 23 {hh:mm}
  7,                                      !- Value Until Time 23
  24:00,                                  !- Time 24 {hh:mm}
  7;                                      !- Value Until Time 24

Schedule:Day:Interval,
  satCHW Temp 1,                          !- Name
  Temperature,                            !- Schedule Type Limits Name
  No,                                     !- Interpolate to Timestep
  01:00,                                  !- Time 1 {hh:mm}
  7,                                      !- Value Until Time 1
  02:00,                                  !- Time 2 {hh:mm}
  7,                                      !- Value Until Time 2
  03:00,                                  !- Time 3 {hh:mm}
  7,                                      !- Value Until Time 3
  04:00,                                  !- Time 4 {hh:mm}
  7,                                      !- Value Until Time 4
  05:00,                                  !- Time 5 {hh:mm}
  7,                                      !- Value Until Time 5
  06:00,                                  !- Time 6 {hh:mm}
  7,                                      !- Value Until Time 6
  07:00,                                  !- Time 7 {hh:mm}
  7,                                      !- Value Until Time 7
  08:00,                                  !- Time 8 {hh:mm}
  7,                                      !- Value Until Time 8
  09:00,                                  !- Time 9 {hh:mm}
  7,                                      !- Value Until Time 9
  10:00,                                  !- Time 10 {hh:mm}
  7,                                      !- Value Until Time 10
  11:00,                                  !- Time 11 {hh:mm}
  7,                                      !- Value Until Time 11
  12:00,                                  !- Time 12 {hh:mm}
  7,                                      !- Value Until Time 12
  13:00,                                  !- Time 13 {hh:mm}
  7,                                      !- Value Until Time 13
  14:00,                                  !- Time 14 {hh:mm}
  7,                                      !- Value Until Time 14
  15:00,                                  !- Time 15 {hh:mm}
  7,                                      !- Value Until Time 15
  16:00,                                  !- Time 16 {hh:mm}
  7,                                      !- Value Until Time 16
  17:00,                                  !- Time 17 {hh:mm}
  7,                                      !- Value Until Time 17
  18:00,                                  !- Time 18 {hh:mm}
  7,                                      !- Value Until Time 18
  19:00,                                  !- Time 19 {hh:mm}
  7,                                      !- Value Until Time 19
  20:00,                                  !- Time 20 {hh:mm}
  7,                                      !- Value Until Time 20
  21:00,                                  !- Time 21 {hh:mm}
  7,                                      !- Value Until Time 21
  22:00,                                  !- Time 22 {hh:mm}
  7,                                      !- Value Until Time 22
  23:00,                                  !- Time 23 {hh:mm}
  7,                                      !- Value Until Time 23
  24:00,                                  !- Time 24 {hh:mm}
  7;                                      !- Value Until Time 24

Schedule:Day:Interval,
  satCW Temp,                             !- Name
  TEMPERATURE 2,                          !- Schedule Type Limits Name
  No,                                     !- Interpolate to Timestep
  01:00,                                  !- Time 1 {hh:mm}
  29,                                     !- Value Until Time 1
  02:00,                                  !- Time 2 {hh:mm}
  29,                                     !- Value Until Time 2
  03:00,                                  !- Time 3 {hh:mm}
  29,                                     !- Value Until Time 3
  04:00,                                  !- Time 4 {hh:mm}
  29,                                     !- Value Until Time 4
  05:00,                                  !- Time 5 {hh:mm}
  29,                                     !- Value Until Time 5
  06:00,                                  !- Time 6 {hh:mm}
  29,                                     !- Value Until Time 6
  07:00,                                  !- Time 7 {hh:mm}
  29,                                     !- Value Until Time 7
  08:00,                                  !- Time 8 {hh:mm}
  29,                                     !- Value Until Time 8
  09:00,                                  !- Time 9 {hh:mm}
  29,                                     !- Value Until Time 9
  10:00,                                  !- Time 10 {hh:mm}
  29,                                     !- Value Until Time 10
  11:00,                                  !- Time 11 {hh:mm}
  29,                                     !- Value Until Time 11
  12:00,                                  !- Time 12 {hh:mm}
  29,                                     !- Value Until Time 12
  13:00,                                  !- Time 13 {hh:mm}
  29,                                     !- Value Until Time 13
  14:00,                                  !- Time 14 {hh:mm}
  29,                                     !- Value Until Time 14
  15:00,                                  !- Time 15 {hh:mm}
  29,                                     !- Value Until Time 15
  16:00,                                  !- Time 16 {hh:mm}
  29,                                     !- Value Until Time 16
  17:00,                                  !- Time 17 {hh:mm}
  29,                                     !- Value Until Time 17
  18:00,                                  !- Time 18 {hh:mm}
  29,                                     !- Value Until Time 18
  19:00,                                  !- Time 19 {hh:mm}
  29,                                     !- Value Until Time 19
  20:00,                                  !- Time 20 {hh:mm}
  29,                                     !- Value Until Time 20
  21:00,                                  !- Time 21 {hh:mm}
  29,                                     !- Value Until Time 21
  22:00,                                  !- Time 22 {hh:mm}
  29,                                     !- Value Until Time 22
  23:00,                                  !- Time 23 {hh:mm}
  29,                                     !- Value Until Time 23
  24:00,                                  !- Time 24 {hh:mm}
  29;                                     !- Value Until Time 24

Schedule:Day:Interval,
  satCW Temp 1,                           !- Name
  Temperature,                            !- Schedule Type Limits Name
  No,                                     !- Interpolate to Timestep
  01:00,                                  !- Time 1 {hh:mm}
  29,                                     !- Value Until Time 1
  02:00,                                  !- Time 2 {hh:mm}
  29,                                     !- Value Until Time 2
  03:00,                                  !- Time 3 {hh:mm}
  29,                                     !- Value Until Time 3
  04:00,                                  !- Time 4 {hh:mm}
  29,                                     !- Value Until Time 4
  05:00,                                  !- Time 5 {hh:mm}
  29,                                     !- Value Until Time 5
  06:00,                                  !- Time 6 {hh:mm}
  29,                                     !- Value Until Time 6
  07:00,                                  !- Time 7 {hh:mm}
  29,                                     !- Value Until Time 7
  08:00,                                  !- Time 8 {hh:mm}
  29,                                     !- Value Until Time 8
  09:00,                                  !- Time 9 {hh:mm}
  29,                                     !- Value Until Time 9
  10:00,                                  !- Time 10 {hh:mm}
  29,                                     !- Value Until Time 10
  11:00,                                  !- Time 11 {hh:mm}
  29,                                     !- Value Until Time 11
  12:00,                                  !- Time 12 {hh:mm}
  29,                                     !- Value Until Time 12
  13:00,                                  !- Time 13 {hh:mm}
  29,                                     !- Value Until Time 13
  14:00,                                  !- Time 14 {hh:mm}
  29,                                     !- Value Until Time 14
  15:00,                                  !- Time 15 {hh:mm}
  29,                                     !- Value Until Time 15
  16:00,                                  !- Time 16 {hh:mm}
  29,                                     !- Value Until Time 16
  17:00,                                  !- Time 17 {hh:mm}
  29,                                     !- Value Until Time 17
  18:00,                                  !- Time 18 {hh:mm}
  29,                                     !- Value Until Time 18
  19:00,                                  !- Time 19 {hh:mm}
  29,                                     !- Value Until Time 19
  20:00,                                  !- Time 20 {hh:mm}
  29,                                     !- Value Until Time 20
  21:00,                                  !- Time 21 {hh:mm}
  29,                                     !- Value Until Time 21
  22:00,                                  !- Time 22 {hh:mm}
  29,                                     !- Value Until Time 22
  23:00,                                  !- Time 23 {hh:mm}
  29,                                     !- Value Until Time 23
  24:00,                                  !- Time 24 {hh:mm}
  29;                                     !- Value Until Time 24

Schedule:Day:Interval,
  Schedule Day 1,                         !- Name
  ,                                       !- Schedule Type Limits Name
  No,                                     !- Interpolate to Timestep
  24:00,                                  !- Time 1 {hh:mm}
  0;                                      !- Value Until Time 1

Schedule:Day:Interval,
  Schedule Day 2,                         !- Name
  ,                                       !- Schedule Type Limits Name
  No,                                     !- Interpolate to Timestep
  24:00,                                  !- Time 1 {hh:mm}
  0;                                      !- Value Until Time 1

Schedule:Day:Interval,
  Schedule Day 3,                         !- Name
  Temperature,                            !- Schedule Type Limits Name
  No,                                     !- Interpolate to Timestep
  01:00,                                  !- Time 1 {hh:mm}
  7,                                      !- Value Until Time 1
  02:00,                                  !- Time 2 {hh:mm}
  7,                                      !- Value Until Time 2
  03:00,                                  !- Time 3 {hh:mm}
  7,                                      !- Value Until Time 3
  04:00,                                  !- Time 4 {hh:mm}
  7,                                      !- Value Until Time 4
  05:00,                                  !- Time 5 {hh:mm}
  7,                                      !- Value Until Time 5
  06:00,                                  !- Time 6 {hh:mm}
  7,                                      !- Value Until Time 6
  07:00,                                  !- Time 7 {hh:mm}
  7,                                      !- Value Until Time 7
  08:00,                                  !- Time 8 {hh:mm}
  7,                                      !- Value Until Time 8
  09:00,                                  !- Time 9 {hh:mm}
  7,                                      !- Value Until Time 9
  10:00,                                  !- Time 10 {hh:mm}
  7,                                      !- Value Until Time 10
  11:00,                                  !- Time 11 {hh:mm}
  7,                                      !- Value Until Time 11
  12:00,                                  !- Time 12 {hh:mm}
  7,                                      !- Value Until Time 12
  13:00,                                  !- Time 13 {hh:mm}
  7,                                      !- Value Until Time 13
  14:00,                                  !- Time 14 {hh:mm}
  7,                                      !- Value Until Time 14
  15:00,                                  !- Time 15 {hh:mm}
  7,                                      !- Value Until Time 15
  16:00,                                  !- Time 16 {hh:mm}
  7,                                      !- Value Until Time 16
  17:00,                                  !- Time 17 {hh:mm}
  7,                                      !- Value Until Time 17
  18:00,                                  !- Time 18 {hh:mm}
  7,                                      !- Value Until Time 18
  19:00,                                  !- Time 19 {hh:mm}
  7,                                      !- Value Until Time 19
  20:00,                                  !- Time 20 {hh:mm}
  7,                                      !- Value Until Time 20
  21:00,                                  !- Time 21 {hh:mm}
  7,                                      !- Value Until Time 21
  22:00,                                  !- Time 22 {hh:mm}
  7,                                      !- Value Until Time 22
  23:00,                                  !- Time 23 {hh:mm}
  7,                                      !- Value Until Time 23
  24:00,                                  !- Time 24 {hh:mm}
  7;                                      !- Value Until Time 24

Schedule:Day:Interval,
  Schedule Day 4,                         !- Name
  Temperature,                            !- Schedule Type Limits Name
  No,                                     !- Interpolate to Timestep
  01:00,                                  !- Time 1 {hh:mm}
  29,                                     !- Value Until Time 1
  02:00,                                  !- Time 2 {hh:mm}
  29,                                     !- Value Until Time 2
  03:00,                                  !- Time 3 {hh:mm}
  29,                                     !- Value Until Time 3
  04:00,                                  !- Time 4 {hh:mm}
  29,                                     !- Value Until Time 4
  05:00,                                  !- Time 5 {hh:mm}
  29,                                     !- Value Until Time 5
  06:00,                                  !- Time 6 {hh:mm}
  29,                                     !- Value Until Time 6
  07:00,                                  !- Time 7 {hh:mm}
  29,                                     !- Value Until Time 7
  08:00,                                  !- Time 8 {hh:mm}
  29,                                     !- Value Until Time 8
  09:00,                                  !- Time 9 {hh:mm}
  29,                                     !- Value Until Time 9
  10:00,                                  !- Time 10 {hh:mm}
  29,                                     !- Value Until Time 10
  11:00,                                  !- Time 11 {hh:mm}
  29,                                     !- Value Until Time 11
  12:00,                                  !- Time 12 {hh:mm}
  29,                                     !- Value Until Time 12
  13:00,                                  !- Time 13 {hh:mm}
  29,                                     !- Value Until Time 13
  14:00,                                  !- Time 14 {hh:mm}
  29,                                     !- Value Until Time 14
  15:00,                                  !- Time 15 {hh:mm}
  29,                                     !- Value Until Time 15
  16:00,                                  !- Time 16 {hh:mm}
  29,                                     !- Value Until Time 16
  17:00,                                  !- Time 17 {hh:mm}
  29,                                     !- Value Until Time 17
  18:00,                                  !- Time 18 {hh:mm}
  29,                                     !- Value Until Time 18
  19:00,                                  !- Time 19 {hh:mm}
  29,                                     !- Value Until Time 19
  20:00,                                  !- Time 20 {hh:mm}
  29,                                     !- Value Until Time 20
  21:00,                                  !- Time 21 {hh:mm}
  29,                                     !- Value Until Time 21
  22:00,                                  !- Time 22 {hh:mm}
  29,                                     !- Value Until Time 22
  23:00,                                  !- Time 23 {hh:mm}
  29,                                     !- Value Until Time 23
  24:00,                                  !- Time 24 {hh:mm}
  29;                                     !- Value Until Time 24

Schedule:Day:Interval,
  Schedule Day 5,                         !- Name
  Temperature,                            !- Schedule Type Limits Name
  No,                                     !- Interpolate to Timestep
  24:00,                                  !- Time 1 {hh:mm}
  22;                                     !- Value Until Time 1

Schedule:Day:Interval,
  Schedule Day 6,                         !- Name
  Temperature,                            !- Schedule Type Limits Name
  No,                                     !- Interpolate to Timestep
  24:00,                                  !- Time 1 {hh:mm}
  60;                                     !- Value Until Time 1

Schedule:Day:Interval,
  Service Water Loop Temp - 140F Default, !- Name
  Temperature,                            !- Schedule Type Limits Name
  No,                                     !- Interpolate to Timestep
  24:00,                                  !- Time 1 {hh:mm}
  60;                                     !- Value Until Time 1

Schedule:Day:Interval,
  sunCHW Temp,                            !- Name
  TEMPERATURE 1,                          !- Schedule Type Limits Name
  No,                                     !- Interpolate to Timestep
  01:00,                                  !- Time 1 {hh:mm}
  7,                                      !- Value Until Time 1
  02:00,                                  !- Time 2 {hh:mm}
  7,                                      !- Value Until Time 2
  03:00,                                  !- Time 3 {hh:mm}
  7,                                      !- Value Until Time 3
  04:00,                                  !- Time 4 {hh:mm}
  7,                                      !- Value Until Time 4
  05:00,                                  !- Time 5 {hh:mm}
  7,                                      !- Value Until Time 5
  06:00,                                  !- Time 6 {hh:mm}
  7,                                      !- Value Until Time 6
  07:00,                                  !- Time 7 {hh:mm}
  7,                                      !- Value Until Time 7
  08:00,                                  !- Time 8 {hh:mm}
  7,                                      !- Value Until Time 8
  09:00,                                  !- Time 9 {hh:mm}
  7,                                      !- Value Until Time 9
  10:00,                                  !- Time 10 {hh:mm}
  7,                                      !- Value Until Time 10
  11:00,                                  !- Time 11 {hh:mm}
  7,                                      !- Value Until Time 11
  12:00,                                  !- Time 12 {hh:mm}
  7,                                      !- Value Until Time 12
  13:00,                                  !- Time 13 {hh:mm}
  7,                                      !- Value Until Time 13
  14:00,                                  !- Time 14 {hh:mm}
  7,                                      !- Value Until Time 14
  15:00,                                  !- Time 15 {hh:mm}
  7,                                      !- Value Until Time 15
  16:00,                                  !- Time 16 {hh:mm}
  7,                                      !- Value Until Time 16
  17:00,                                  !- Time 17 {hh:mm}
  7,                                      !- Value Until Time 17
  18:00,                                  !- Time 18 {hh:mm}
  7,                                      !- Value Until Time 18
  19:00,                                  !- Time 19 {hh:mm}
  7,                                      !- Value Until Time 19
  20:00,                                  !- Time 20 {hh:mm}
  7,                                      !- Value Until Time 20
  21:00,                                  !- Time 21 {hh:mm}
  7,                                      !- Value Until Time 21
  22:00,                                  !- Time 22 {hh:mm}
  7,                                      !- Value Until Time 22
  23:00,                                  !- Time 23 {hh:mm}
  7,                                      !- Value Until Time 23
  24:00,                                  !- Time 24 {hh:mm}
  7;                                      !- Value Until Time 24

Schedule:Day:Interval,
  sunCHW Temp 1,                          !- Name
  Temperature,                            !- Schedule Type Limits Name
  No,                                     !- Interpolate to Timestep
  01:00,                                  !- Time 1 {hh:mm}
  7,                                      !- Value Until Time 1
  02:00,                                  !- Time 2 {hh:mm}
  7,                                      !- Value Until Time 2
  03:00,                                  !- Time 3 {hh:mm}
  7,                                      !- Value Until Time 3
  04:00,                                  !- Time 4 {hh:mm}
  7,                                      !- Value Until Time 4
  05:00,                                  !- Time 5 {hh:mm}
  7,                                      !- Value Until Time 5
  06:00,                                  !- Time 6 {hh:mm}
  7,                                      !- Value Until Time 6
  07:00,                                  !- Time 7 {hh:mm}
  7,                                      !- Value Until Time 7
  08:00,                                  !- Time 8 {hh:mm}
  7,                                      !- Value Until Time 8
  09:00,                                  !- Time 9 {hh:mm}
  7,                                      !- Value Until Time 9
  10:00,                                  !- Time 10 {hh:mm}
  7,                                      !- Value Until Time 10
  11:00,                                  !- Time 11 {hh:mm}
  7,                                      !- Value Until Time 11
  12:00,                                  !- Time 12 {hh:mm}
  7,                                      !- Value Until Time 12
  13:00,                                  !- Time 13 {hh:mm}
  7,                                      !- Value Until Time 13
  14:00,                                  !- Time 14 {hh:mm}
  7,                                      !- Value Until Time 14
  15:00,                                  !- Time 15 {hh:mm}
  7,                                      !- Value Until Time 15
  16:00,                                  !- Time 16 {hh:mm}
  7,                                      !- Value Until Time 16
  17:00,                                  !- Time 17 {hh:mm}
  7,                                      !- Value Until Time 17
  18:00,                                  !- Time 18 {hh:mm}
  7,                                      !- Value Until Time 18
  19:00,                                  !- Time 19 {hh:mm}
  7,                                      !- Value Until Time 19
  20:00,                                  !- Time 20 {hh:mm}
  7,                                      !- Value Until Time 20
  21:00,                                  !- Time 21 {hh:mm}
  7,                                      !- Value Until Time 21
  22:00,                                  !- Time 22 {hh:mm}
  7,                                      !- Value Until Time 22
  23:00,                                  !- Time 23 {hh:mm}
  7,                                      !- Value Until Time 23
  24:00,                                  !- Time 24 {hh:mm}
  7;                                      !- Value Until Time 24

Schedule:Day:Interval,
  sunCW Temp,                             !- Name
  TEMPERATURE 2,                          !- Schedule Type Limits Name
  No,                                     !- Interpolate to Timestep
  01:00,                                  !- Time 1 {hh:mm}
  29,                                     !- Value Until Time 1
  02:00,                                  !- Time 2 {hh:mm}
  29,                                     !- Value Until Time 2
  03:00,                                  !- Time 3 {hh:mm}
  29,                                     !- Value Until Time 3
  04:00,                                  !- Time 4 {hh:mm}
  29,                                     !- Value Until Time 4
  05:00,                                  !- Time 5 {hh:mm}
  29,                                     !- Value Until Time 5
  06:00,                                  !- Time 6 {hh:mm}
  29,                                     !- Value Until Time 6
  07:00,                                  !- Time 7 {hh:mm}
  29,                                     !- Value Until Time 7
  08:00,                                  !- Time 8 {hh:mm}
  29,                                     !- Value Until Time 8
  09:00,                                  !- Time 9 {hh:mm}
  29,                                     !- Value Until Time 9
  10:00,                                  !- Time 10 {hh:mm}
  29,                                     !- Value Until Time 10
  11:00,                                  !- Time 11 {hh:mm}
  29,                                     !- Value Until Time 11
  12:00,                                  !- Time 12 {hh:mm}
  29,                                     !- Value Until Time 12
  13:00,                                  !- Time 13 {hh:mm}
  29,                                     !- Value Until Time 13
  14:00,                                  !- Time 14 {hh:mm}
  29,                                     !- Value Until Time 14
  15:00,                                  !- Time 15 {hh:mm}
  29,                                     !- Value Until Time 15
  16:00,                                  !- Time 16 {hh:mm}
  29,                                     !- Value Until Time 16
  17:00,                                  !- Time 17 {hh:mm}
  29,                                     !- Value Until Time 17
  18:00,                                  !- Time 18 {hh:mm}
  29,                                     !- Value Until Time 18
  19:00,                                  !- Time 19 {hh:mm}
  29,                                     !- Value Until Time 19
  20:00,                                  !- Time 20 {hh:mm}
  29,                                     !- Value Until Time 20
  21:00,                                  !- Time 21 {hh:mm}
  29,                                     !- Value Until Time 21
  22:00,                                  !- Time 22 {hh:mm}
  29,                                     !- Value Until Time 22
  23:00,                                  !- Time 23 {hh:mm}
  29,                                     !- Value Until Time 23
  24:00,                                  !- Time 24 {hh:mm}
  29;                                     !- Value Until Time 24

Schedule:Day:Interval,
  sunCW Temp 1,                           !- Name
  Temperature,                            !- Schedule Type Limits Name
  No,                                     !- Interpolate to Timestep
  01:00,                                  !- Time 1 {hh:mm}
  29,                                     !- Value Until Time 1
  02:00,                                  !- Time 2 {hh:mm}
  29,                                     !- Value Until Time 2
  03:00,                                  !- Time 3 {hh:mm}
  29,                                     !- Value Until Time 3
  04:00,                                  !- Time 4 {hh:mm}
  29,                                     !- Value Until Time 4
  05:00,                                  !- Time 5 {hh:mm}
  29,                                     !- Value Until Time 5
  06:00,                                  !- Time 6 {hh:mm}
  29,                                     !- Value Until Time 6
  07:00,                                  !- Time 7 {hh:mm}
  29,                                     !- Value Until Time 7
  08:00,                                  !- Time 8 {hh:mm}
  29,                                     !- Value Until Time 8
  09:00,                                  !- Time 9 {hh:mm}
  29,                                     !- Value Until Time 9
  10:00,                                  !- Time 10 {hh:mm}
  29,                                     !- Value Until Time 10
  11:00,                                  !- Time 11 {hh:mm}
  29,                                     !- Value Until Time 11
  12:00,                                  !- Time 12 {hh:mm}
  29,                                     !- Value Until Time 12
  13:00,                                  !- Time 13 {hh:mm}
  29,                                     !- Value Until Time 13
  14:00,                                  !- Time 14 {hh:mm}
  29,                                     !- Value Until Time 14
  15:00,                                  !- Time 15 {hh:mm}
  29,                                     !- Value Until Time 15
  16:00,                                  !- Time 16 {hh:mm}
  29,                                     !- Value Until Time 16
  17:00,                                  !- Time 17 {hh:mm}
  29,                                     !- Value Until Time 17
  18:00,                                  !- Time 18 {hh:mm}
  29,                                     !- Value Until Time 18
  19:00,                                  !- Time 19 {hh:mm}
  29,                                     !- Value Until Time 19
  20:00,                                  !- Time 20 {hh:mm}
  29,                                     !- Value Until Time 20
  21:00,                                  !- Time 21 {hh:mm}
  29,                                     !- Value Until Time 21
  22:00,                                  !- Time 22 {hh:mm}
  29,                                     !- Value Until Time 22
  23:00,                                  !- Time 23 {hh:mm}
  29,                                     !- Value Until Time 23
  24:00,                                  !- Time 24 {hh:mm}
  29;                                     !- Value Until Time 24

Schedule:Day:Interval,
  Supply Air Temp Default,                !- Name
  Temperature,                            !- Schedule Type Limits Name
  No,                                     !- Interpolate to Timestep
  24:00,                                  !- Time 1 {hh:mm}
  13;                                     !- Value Until Time 1

Schedule:Day:Interval,
  Supply Air Temp Default 1,              !- Name
  Temperature,                            !- Schedule Type Limits Name
  No,                                     !- Interpolate to Timestep
  24:00,                                  !- Time 1 {hh:mm}
  13;                                     !- Value Until Time 1

Schedule:Day:Interval,
  Supply Air Temp Default 2,              !- Name
  Temperature,                            !- Schedule Type Limits Name
  No,                                     !- Interpolate to Timestep
  24:00,                                  !- Time 1 {hh:mm}
  13;                                     !- Value Until Time 1

Schedule:Day:Interval,
  Water Heater Ambient Temp Schedule 71.6F Default, !- Name
  Temperature,                            !- Schedule Type Limits Name
  No,                                     !- Interpolate to Timestep
  24:00,                                  !- Time 1 {hh:mm}
  22.0000000000001;                       !- Value Until Time 1

Schedule:Day:Interval,
  wkdCHW Temp,                            !- Name
  TEMPERATURE 1,                          !- Schedule Type Limits Name
  No,                                     !- Interpolate to Timestep
  01:00,                                  !- Time 1 {hh:mm}
  7,                                      !- Value Until Time 1
  02:00,                                  !- Time 2 {hh:mm}
  7,                                      !- Value Until Time 2
  03:00,                                  !- Time 3 {hh:mm}
  7,                                      !- Value Until Time 3
  04:00,                                  !- Time 4 {hh:mm}
  7,                                      !- Value Until Time 4
  05:00,                                  !- Time 5 {hh:mm}
  7,                                      !- Value Until Time 5
  06:00,                                  !- Time 6 {hh:mm}
  7,                                      !- Value Until Time 6
  07:00,                                  !- Time 7 {hh:mm}
  7,                                      !- Value Until Time 7
  08:00,                                  !- Time 8 {hh:mm}
  7,                                      !- Value Until Time 8
  09:00,                                  !- Time 9 {hh:mm}
  7,                                      !- Value Until Time 9
  10:00,                                  !- Time 10 {hh:mm}
  7,                                      !- Value Until Time 10
  11:00,                                  !- Time 11 {hh:mm}
  7,                                      !- Value Until Time 11
  12:00,                                  !- Time 12 {hh:mm}
  7,                                      !- Value Until Time 12
  13:00,                                  !- Time 13 {hh:mm}
  7,                                      !- Value Until Time 13
  14:00,                                  !- Time 14 {hh:mm}
  7,                                      !- Value Until Time 14
  15:00,                                  !- Time 15 {hh:mm}
  7,                                      !- Value Until Time 15
  16:00,                                  !- Time 16 {hh:mm}
  7,                                      !- Value Until Time 16
  17:00,                                  !- Time 17 {hh:mm}
  7,                                      !- Value Until Time 17
  18:00,                                  !- Time 18 {hh:mm}
  7,                                      !- Value Until Time 18
  19:00,                                  !- Time 19 {hh:mm}
  7,                                      !- Value Until Time 19
  20:00,                                  !- Time 20 {hh:mm}
  7,                                      !- Value Until Time 20
  21:00,                                  !- Time 21 {hh:mm}
  7,                                      !- Value Until Time 21
  22:00,                                  !- Time 22 {hh:mm}
  7,                                      !- Value Until Time 22
  23:00,                                  !- Time 23 {hh:mm}
  7,                                      !- Value Until Time 23
  24:00,                                  !- Time 24 {hh:mm}
  7;                                      !- Value Until Time 24

Schedule:Day:Interval,
  wkdCHW Temp 1,                          !- Name
  Temperature,                            !- Schedule Type Limits Name
  No,                                     !- Interpolate to Timestep
  01:00,                                  !- Time 1 {hh:mm}
  7,                                      !- Value Until Time 1
  02:00,                                  !- Time 2 {hh:mm}
  7,                                      !- Value Until Time 2
  03:00,                                  !- Time 3 {hh:mm}
  7,                                      !- Value Until Time 3
  04:00,                                  !- Time 4 {hh:mm}
  7,                                      !- Value Until Time 4
  05:00,                                  !- Time 5 {hh:mm}
  7,                                      !- Value Until Time 5
  06:00,                                  !- Time 6 {hh:mm}
  7,                                      !- Value Until Time 6
  07:00,                                  !- Time 7 {hh:mm}
  7,                                      !- Value Until Time 7
  08:00,                                  !- Time 8 {hh:mm}
  7,                                      !- Value Until Time 8
  09:00,                                  !- Time 9 {hh:mm}
  7,                                      !- Value Until Time 9
  10:00,                                  !- Time 10 {hh:mm}
  7,                                      !- Value Until Time 10
  11:00,                                  !- Time 11 {hh:mm}
  7,                                      !- Value Until Time 11
  12:00,                                  !- Time 12 {hh:mm}
  7,                                      !- Value Until Time 12
  13:00,                                  !- Time 13 {hh:mm}
  7,                                      !- Value Until Time 13
  14:00,                                  !- Time 14 {hh:mm}
  7,                                      !- Value Until Time 14
  15:00,                                  !- Time 15 {hh:mm}
  7,                                      !- Value Until Time 15
  16:00,                                  !- Time 16 {hh:mm}
  7,                                      !- Value Until Time 16
  17:00,                                  !- Time 17 {hh:mm}
  7,                                      !- Value Until Time 17
  18:00,                                  !- Time 18 {hh:mm}
  7,                                      !- Value Until Time 18
  19:00,                                  !- Time 19 {hh:mm}
  7,                                      !- Value Until Time 19
  20:00,                                  !- Time 20 {hh:mm}
  7,                                      !- Value Until Time 20
  21:00,                                  !- Time 21 {hh:mm}
  7,                                      !- Value Until Time 21
  22:00,                                  !- Time 22 {hh:mm}
  7,                                      !- Value Until Time 22
  23:00,                                  !- Time 23 {hh:mm}
  7,                                      !- Value Until Time 23
  24:00,                                  !- Time 24 {hh:mm}
  7;                                      !- Value Until Time 24

Schedule:Day:Interval,
  wkdCW Temp,                             !- Name
  TEMPERATURE 2,                          !- Schedule Type Limits Name
  No,                                     !- Interpolate to Timestep
  01:00,                                  !- Time 1 {hh:mm}
  29,                                     !- Value Until Time 1
  02:00,                                  !- Time 2 {hh:mm}
  29,                                     !- Value Until Time 2
  03:00,                                  !- Time 3 {hh:mm}
  29,                                     !- Value Until Time 3
  04:00,                                  !- Time 4 {hh:mm}
  29,                                     !- Value Until Time 4
  05:00,                                  !- Time 5 {hh:mm}
  29,                                     !- Value Until Time 5
  06:00,                                  !- Time 6 {hh:mm}
  29,                                     !- Value Until Time 6
  07:00,                                  !- Time 7 {hh:mm}
  29,                                     !- Value Until Time 7
  08:00,                                  !- Time 8 {hh:mm}
  29,                                     !- Value Until Time 8
  09:00,                                  !- Time 9 {hh:mm}
  29,                                     !- Value Until Time 9
  10:00,                                  !- Time 10 {hh:mm}
  29,                                     !- Value Until Time 10
  11:00,                                  !- Time 11 {hh:mm}
  29,                                     !- Value Until Time 11
  12:00,                                  !- Time 12 {hh:mm}
  29,                                     !- Value Until Time 12
  13:00,                                  !- Time 13 {hh:mm}
  29,                                     !- Value Until Time 13
  14:00,                                  !- Time 14 {hh:mm}
  29,                                     !- Value Until Time 14
  15:00,                                  !- Time 15 {hh:mm}
  29,                                     !- Value Until Time 15
  16:00,                                  !- Time 16 {hh:mm}
  29,                                     !- Value Until Time 16
  17:00,                                  !- Time 17 {hh:mm}
  29,                                     !- Value Until Time 17
  18:00,                                  !- Time 18 {hh:mm}
  29,                                     !- Value Until Time 18
  19:00,                                  !- Time 19 {hh:mm}
  29,                                     !- Value Until Time 19
  20:00,                                  !- Time 20 {hh:mm}
  29,                                     !- Value Until Time 20
  21:00,                                  !- Time 21 {hh:mm}
  29,                                     !- Value Until Time 21
  22:00,                                  !- Time 22 {hh:mm}
  29,                                     !- Value Until Time 22
  23:00,                                  !- Time 23 {hh:mm}
  29,                                     !- Value Until Time 23
  24:00,                                  !- Time 24 {hh:mm}
  29;                                     !- Value Until Time 24

Schedule:Day:Interval,
  wkdCW Temp 1,                           !- Name
  Temperature,                            !- Schedule Type Limits Name
  No,                                     !- Interpolate to Timestep
  01:00,                                  !- Time 1 {hh:mm}
  29,                                     !- Value Until Time 1
  02:00,                                  !- Time 2 {hh:mm}
  29,                                     !- Value Until Time 2
  03:00,                                  !- Time 3 {hh:mm}
  29,                                     !- Value Until Time 3
  04:00,                                  !- Time 4 {hh:mm}
  29,                                     !- Value Until Time 4
  05:00,                                  !- Time 5 {hh:mm}
  29,                                     !- Value Until Time 5
  06:00,                                  !- Time 6 {hh:mm}
  29,                                     !- Value Until Time 6
  07:00,                                  !- Time 7 {hh:mm}
  29,                                     !- Value Until Time 7
  08:00,                                  !- Time 8 {hh:mm}
  29,                                     !- Value Until Time 8
  09:00,                                  !- Time 9 {hh:mm}
  29,                                     !- Value Until Time 9
  10:00,                                  !- Time 10 {hh:mm}
  29,                                     !- Value Until Time 10
  11:00,                                  !- Time 11 {hh:mm}
  29,                                     !- Value Until Time 11
  12:00,                                  !- Time 12 {hh:mm}
  29,                                     !- Value Until Time 12
  13:00,                                  !- Time 13 {hh:mm}
  29,                                     !- Value Until Time 13
  14:00,                                  !- Time 14 {hh:mm}
  29,                                     !- Value Until Time 14
  15:00,                                  !- Time 15 {hh:mm}
  29,                                     !- Value Until Time 15
  16:00,                                  !- Time 16 {hh:mm}
  29,                                     !- Value Until Time 16
  17:00,                                  !- Time 17 {hh:mm}
  29,                                     !- Value Until Time 17
  18:00,                                  !- Time 18 {hh:mm}
  29,                                     !- Value Until Time 18
  19:00,                                  !- Time 19 {hh:mm}
  29,                                     !- Value Until Time 19
  20:00,                                  !- Time 20 {hh:mm}
  29,                                     !- Value Until Time 20
  21:00,                                  !- Time 21 {hh:mm}
  29,                                     !- Value Until Time 21
  22:00,                                  !- Time 22 {hh:mm}
  29,                                     !- Value Until Time 22
  23:00,                                  !- Time 23 {hh:mm}
  29,                                     !- Value Until Time 23
  24:00,                                  !- Time 24 {hh:mm}
  29;                                     !- Value Until Time 24

Schedule:Week:Daily,
  CHW Temp Week Rule - Jan1-Dec31,        !- Name
  sunCHW Temp 1,                          !- Sunday Schedule:Day Name
  wkdCHW Temp 1,                          !- Monday Schedule:Day Name
  wkdCHW Temp 1,                          !- Tuesday Schedule:Day Name
  wkdCHW Temp 1,                          !- Wednesday Schedule:Day Name
  wkdCHW Temp 1,                          !- Thursday Schedule:Day Name
  wkdCHW Temp 1,                          !- Friday Schedule:Day Name
  satCHW Temp 1,                          !- Saturday Schedule:Day Name
  Schedule Day 3,                         !- Holiday Schedule:Day Name
  Schedule Day 3,                         !- SummerDesignDay Schedule:Day Name
  Schedule Day 3,                         !- WinterDesignDay Schedule:Day Name
  Schedule Day 3,                         !- CustomDay1 Schedule:Day Name
  Schedule Day 3;                         !- CustomDay2 Schedule:Day Name

Schedule:Year,
  CHW Temp,                               !- Name
  Temperature,                            !- Schedule Type Limits Name
  CHW Temp Week Rule - Jan1-Dec31,        !- Schedule:Week Name 1
  1,                                      !- Start Month 1
  1,                                      !- Start Day 1
  12,                                     !- End Month 1
  31;                                     !- End Day 1

Schedule:Week:Daily,
  CW Temp Week Rule - Jan1-Dec31,         !- Name
  sunCW Temp 1,                           !- Sunday Schedule:Day Name
  wkdCW Temp 1,                           !- Monday Schedule:Day Name
  wkdCW Temp 1,                           !- Tuesday Schedule:Day Name
  wkdCW Temp 1,                           !- Wednesday Schedule:Day Name
  wkdCW Temp 1,                           !- Thursday Schedule:Day Name
  wkdCW Temp 1,                           !- Friday Schedule:Day Name
  satCW Temp 1,                           !- Saturday Schedule:Day Name
  Schedule Day 4,                         !- Holiday Schedule:Day Name
  Schedule Day 4,                         !- SummerDesignDay Schedule:Day Name
  Schedule Day 4,                         !- WinterDesignDay Schedule:Day Name
  Schedule Day 4,                         !- CustomDay1 Schedule:Day Name
  Schedule Day 4;                         !- CustomDay2 Schedule:Day Name

Schedule:Year,
  CW Temp,                                !- Name
  Temperature,                            !- Schedule Type Limits Name
  CW Temp Week Rule - Jan1-Dec31,         !- Schedule:Week Name 1
  1,                                      !- Start Month 1
  1,                                      !- Start Day 1
  12,                                     !- End Month 1
  31;                                     !- End Day 1

Schedule:Week:Daily,
  Economizer Max OA Fraction 100 pct Week Rule - Jan1-Dec31, !- Name
  Economizer Max OA Fraction 100 pct Default, !- Sunday Schedule:Day Name
  Economizer Max OA Fraction 100 pct Default, !- Monday Schedule:Day Name
  Economizer Max OA Fraction 100 pct Default, !- Tuesday Schedule:Day Name
  Economizer Max OA Fraction 100 pct Default, !- Wednesday Schedule:Day Name
  Economizer Max OA Fraction 100 pct Default, !- Thursday Schedule:Day Name
  Economizer Max OA Fraction 100 pct Default, !- Friday Schedule:Day Name
  Economizer Max OA Fraction 100 pct Default, !- Saturday Schedule:Day Name
  Economizer Max OA Fraction 100 pct Default, !- Holiday Schedule:Day Name
  Economizer Max OA Fraction 100 pct Default, !- SummerDesignDay Schedule:Day Name
  Economizer Max OA Fraction 100 pct Default, !- WinterDesignDay Schedule:Day Name
  Economizer Max OA Fraction 100 pct Default, !- CustomDay1 Schedule:Day Name
  Economizer Max OA Fraction 100 pct Default; !- CustomDay2 Schedule:Day Name

Schedule:Year,
  Economizer Max OA Fraction 100 pct,     !- Name
  ,                                       !- Schedule Type Limits Name
  Economizer Max OA Fraction 100 pct Week Rule - Jan1-Dec31, !- Schedule:Week Name 1
  1,                                      !- Start Month 1
  1,                                      !- Start Day 1
  12,                                     !- End Month 1
  31;                                     !- End Day 1

Schedule:Week:Daily,
  Fraction Latent - 0.05 Week Rule - Jan1-Dec31, !- Name
  Fraction Latent - 0.05 Default,         !- Sunday Schedule:Day Name
  Fraction Latent - 0.05 Default,         !- Monday Schedule:Day Name
  Fraction Latent - 0.05 Default,         !- Tuesday Schedule:Day Name
  Fraction Latent - 0.05 Default,         !- Wednesday Schedule:Day Name
  Fraction Latent - 0.05 Default,         !- Thursday Schedule:Day Name
  Fraction Latent - 0.05 Default,         !- Friday Schedule:Day Name
  Fraction Latent - 0.05 Default,         !- Saturday Schedule:Day Name
  Fraction Latent - 0.05 Default,         !- Holiday Schedule:Day Name
  Fraction Latent - 0.05 Default,         !- SummerDesignDay Schedule:Day Name
  Fraction Latent - 0.05 Default,         !- WinterDesignDay Schedule:Day Name
  Fraction Latent - 0.05 Default,         !- CustomDay1 Schedule:Day Name
  Fraction Latent - 0.05 Default;         !- CustomDay2 Schedule:Day Name

Schedule:Year,
  Fraction Latent - 0.05,                 !- Name
  Fractional,                             !- Schedule Type Limits Name
  Fraction Latent - 0.05 Week Rule - Jan1-Dec31, !- Schedule:Week Name 1
  1,                                      !- Start Month 1
  1,                                      !- Start Day 1
  12,                                     !- End Month 1
  31;                                     !- End Day 1

Schedule:Week:Daily,
  Fraction Sensible - 0.2 Week Rule - Jan1-Dec31, !- Name
  Fraction Sensible - 0.2 Default,        !- Sunday Schedule:Day Name
  Fraction Sensible - 0.2 Default,        !- Monday Schedule:Day Name
  Fraction Sensible - 0.2 Default,        !- Tuesday Schedule:Day Name
  Fraction Sensible - 0.2 Default,        !- Wednesday Schedule:Day Name
  Fraction Sensible - 0.2 Default,        !- Thursday Schedule:Day Name
  Fraction Sensible - 0.2 Default,        !- Friday Schedule:Day Name
  Fraction Sensible - 0.2 Default,        !- Saturday Schedule:Day Name
  Fraction Sensible - 0.2 Default,        !- Holiday Schedule:Day Name
  Fraction Sensible - 0.2 Default,        !- SummerDesignDay Schedule:Day Name
  Fraction Sensible - 0.2 Default,        !- WinterDesignDay Schedule:Day Name
  Fraction Sensible - 0.2 Default,        !- CustomDay1 Schedule:Day Name
  Fraction Sensible - 0.2 Default;        !- CustomDay2 Schedule:Day Name

Schedule:Year,
  Fraction Sensible - 0.2,                !- Name
  Fractional,                             !- Schedule Type Limits Name
  Fraction Sensible - 0.2 Week Rule - Jan1-Dec31, !- Schedule:Week Name 1
  1,                                      !- Start Month 1
  1,                                      !- Start Day 1
  12,                                     !- End Month 1
  31;                                     !- End Day 1

Schedule:Week:Daily,
  Mixed Water At Faucet Temp - 140F Week Rule - Jan1-Dec31, !- Name
  Mixed Water At Faucet Temp - 140F Default, !- Sunday Schedule:Day Name
  Mixed Water At Faucet Temp - 140F Default, !- Monday Schedule:Day Name
  Mixed Water At Faucet Temp - 140F Default, !- Tuesday Schedule:Day Name
  Mixed Water At Faucet Temp - 140F Default, !- Wednesday Schedule:Day Name
  Mixed Water At Faucet Temp - 140F Default, !- Thursday Schedule:Day Name
  Mixed Water At Faucet Temp - 140F Default, !- Friday Schedule:Day Name
  Mixed Water At Faucet Temp - 140F Default, !- Saturday Schedule:Day Name
  Mixed Water At Faucet Temp - 140F Default, !- Holiday Schedule:Day Name
  Mixed Water At Faucet Temp - 140F Default, !- SummerDesignDay Schedule:Day Name
  Mixed Water At Faucet Temp - 140F Default, !- WinterDesignDay Schedule:Day Name
  Mixed Water At Faucet Temp - 140F Default, !- CustomDay1 Schedule:Day Name
  Mixed Water At Faucet Temp - 140F Default; !- CustomDay2 Schedule:Day Name

Schedule:Year,
  Mixed Water At Faucet Temp - 140F,      !- Name
  Temperature,                            !- Schedule Type Limits Name
  Mixed Water At Faucet Temp - 140F Week Rule - Jan1-Dec31, !- Schedule:Week Name 1
  1,                                      !- Start Month 1
  1,                                      !- Start Day 1
  12,                                     !- End Month 1
  31;                                     !- End Day 1

Schedule:Week:Daily,
  NECB-A-Service Water Heating Week Rule - Jan1-Dec31, !- Name
  NECB-A-Service Water Heating Sun|Hol Day, !- Sunday Schedule:Day Name
  NECB-A-Service Water Heating Default|Wkdy Day, !- Monday Schedule:Day Name
  NECB-A-Service Water Heating Default|Wkdy Day, !- Tuesday Schedule:Day Name
  NECB-A-Service Water Heating Default|Wkdy Day, !- Wednesday Schedule:Day Name
  NECB-A-Service Water Heating Default|Wkdy Day, !- Thursday Schedule:Day Name
  NECB-A-Service Water Heating Default|Wkdy Day, !- Friday Schedule:Day Name
  NECB-A-Service Water Heating Sat Day,   !- Saturday Schedule:Day Name
  NECB-A-Service Water Heating Default,   !- Holiday Schedule:Day Name
  NECB-A-Service Water Heating Default,   !- SummerDesignDay Schedule:Day Name
  NECB-A-Service Water Heating Default,   !- WinterDesignDay Schedule:Day Name
  NECB-A-Service Water Heating Default,   !- CustomDay1 Schedule:Day Name
  NECB-A-Service Water Heating Default;   !- CustomDay2 Schedule:Day Name

Schedule:Year,
  NECB-A-Service Water Heating,           !- Name
  Fractional,                             !- Schedule Type Limits Name
  NECB-A-Service Water Heating Week Rule - Jan1-Dec31, !- Schedule:Week Name 1
  1,                                      !- Start Month 1
  1,                                      !- Start Day 1
  12,                                     !- End Month 1
  31;                                     !- End Day 1

Schedule:Week:Daily,
  Schedule Ruleset 1 Week Rule - Jan1-Dec31, !- Name
  Schedule Day 5,                         !- Sunday Schedule:Day Name
  Schedule Day 5,                         !- Monday Schedule:Day Name
  Schedule Day 5,                         !- Tuesday Schedule:Day Name
  Schedule Day 5,                         !- Wednesday Schedule:Day Name
  Schedule Day 5,                         !- Thursday Schedule:Day Name
  Schedule Day 5,                         !- Friday Schedule:Day Name
  Schedule Day 5,                         !- Saturday Schedule:Day Name
  Schedule Day 5,                         !- Holiday Schedule:Day Name
  Schedule Day 5,                         !- SummerDesignDay Schedule:Day Name
  Schedule Day 5,                         !- WinterDesignDay Schedule:Day Name
  Schedule Day 5,                         !- CustomDay1 Schedule:Day Name
  Schedule Day 5;                         !- CustomDay2 Schedule:Day Name

Schedule:Year,
  Schedule Ruleset 1,                     !- Name
  Temperature,                            !- Schedule Type Limits Name
  Schedule Ruleset 1 Week Rule - Jan1-Dec31, !- Schedule:Week Name 1
  1,                                      !- Start Month 1
  1,                                      !- Start Day 1
  12,                                     !- End Month 1
  31;                                     !- End Day 1

Schedule:Week:Daily,
  Schedule Ruleset 2 Week Rule - Jan1-Dec31, !- Name
  Schedule Day 6,                         !- Sunday Schedule:Day Name
  Schedule Day 6,                         !- Monday Schedule:Day Name
  Schedule Day 6,                         !- Tuesday Schedule:Day Name
  Schedule Day 6,                         !- Wednesday Schedule:Day Name
  Schedule Day 6,                         !- Thursday Schedule:Day Name
  Schedule Day 6,                         !- Friday Schedule:Day Name
  Schedule Day 6,                         !- Saturday Schedule:Day Name
  Schedule Day 6,                         !- Holiday Schedule:Day Name
  Schedule Day 6,                         !- SummerDesignDay Schedule:Day Name
  Schedule Day 6,                         !- WinterDesignDay Schedule:Day Name
  Schedule Day 6,                         !- CustomDay1 Schedule:Day Name
  Schedule Day 6;                         !- CustomDay2 Schedule:Day Name

Schedule:Year,
  Schedule Ruleset 2,                     !- Name
  Temperature,                            !- Schedule Type Limits Name
  Schedule Ruleset 2 Week Rule - Jan1-Dec31, !- Schedule:Week Name 1
  1,                                      !- Start Month 1
  1,                                      !- Start Day 1
  12,                                     !- End Month 1
  31;                                     !- End Day 1

Schedule:Week:Daily,
  Service Water Loop Temp - 140F Week Rule - Jan1-Dec31, !- Name
  Service Water Loop Temp - 140F Default, !- Sunday Schedule:Day Name
  Service Water Loop Temp - 140F Default, !- Monday Schedule:Day Name
  Service Water Loop Temp - 140F Default, !- Tuesday Schedule:Day Name
  Service Water Loop Temp - 140F Default, !- Wednesday Schedule:Day Name
  Service Water Loop Temp - 140F Default, !- Thursday Schedule:Day Name
  Service Water Loop Temp - 140F Default, !- Friday Schedule:Day Name
  Service Water Loop Temp - 140F Default, !- Saturday Schedule:Day Name
  Service Water Loop Temp - 140F Default, !- Holiday Schedule:Day Name
  Service Water Loop Temp - 140F Default, !- SummerDesignDay Schedule:Day Name
  Service Water Loop Temp - 140F Default, !- WinterDesignDay Schedule:Day Name
  Service Water Loop Temp - 140F Default, !- CustomDay1 Schedule:Day Name
  Service Water Loop Temp - 140F Default; !- CustomDay2 Schedule:Day Name

Schedule:Year,
  Service Water Loop Temp - 140F,         !- Name
  Temperature,                            !- Schedule Type Limits Name
  Service Water Loop Temp - 140F Week Rule - Jan1-Dec31, !- Schedule:Week Name 1
  1,                                      !- Start Month 1
  1,                                      !- Start Day 1
  12,                                     !- End Month 1
  31;                                     !- End Day 1

Schedule:Week:Daily,
  Supply Air Temp Week Rule - Jan1-Dec31, !- Name
  Supply Air Temp Default,                !- Sunday Schedule:Day Name
  Supply Air Temp Default,                !- Monday Schedule:Day Name
  Supply Air Temp Default,                !- Tuesday Schedule:Day Name
  Supply Air Temp Default,                !- Wednesday Schedule:Day Name
  Supply Air Temp Default,                !- Thursday Schedule:Day Name
  Supply Air Temp Default,                !- Friday Schedule:Day Name
  Supply Air Temp Default,                !- Saturday Schedule:Day Name
  Supply Air Temp Default,                !- Holiday Schedule:Day Name
  Supply Air Temp Default,                !- SummerDesignDay Schedule:Day Name
  Supply Air Temp Default,                !- WinterDesignDay Schedule:Day Name
  Supply Air Temp Default,                !- CustomDay1 Schedule:Day Name
  Supply Air Temp Default;                !- CustomDay2 Schedule:Day Name

Schedule:Year,
  Supply Air Temp,                        !- Name
  Temperature,                            !- Schedule Type Limits Name
  Supply Air Temp Week Rule - Jan1-Dec31, !- Schedule:Week Name 1
  1,                                      !- Start Month 1
  1,                                      !- Start Day 1
  12,                                     !- End Month 1
  31;                                     !- End Day 1

Schedule:Week:Daily,
  Supply Air Temp 1 Week Rule - Jan1-Dec31, !- Name
  Supply Air Temp Default 1,              !- Sunday Schedule:Day Name
  Supply Air Temp Default 1,              !- Monday Schedule:Day Name
  Supply Air Temp Default 1,              !- Tuesday Schedule:Day Name
  Supply Air Temp Default 1,              !- Wednesday Schedule:Day Name
  Supply Air Temp Default 1,              !- Thursday Schedule:Day Name
  Supply Air Temp Default 1,              !- Friday Schedule:Day Name
  Supply Air Temp Default 1,              !- Saturday Schedule:Day Name
  Supply Air Temp Default 1,              !- Holiday Schedule:Day Name
  Supply Air Temp Default 1,              !- SummerDesignDay Schedule:Day Name
  Supply Air Temp Default 1,              !- WinterDesignDay Schedule:Day Name
  Supply Air Temp Default 1,              !- CustomDay1 Schedule:Day Name
  Supply Air Temp Default 1;              !- CustomDay2 Schedule:Day Name

Schedule:Year,
  Supply Air Temp 1,                      !- Name
  Temperature,                            !- Schedule Type Limits Name
  Supply Air Temp 1 Week Rule - Jan1-Dec31, !- Schedule:Week Name 1
  1,                                      !- Start Month 1
  1,                                      !- Start Day 1
  12,                                     !- End Month 1
  31;                                     !- End Day 1

Schedule:Week:Daily,
  Supply Air Temp 2 Week Rule - Jan1-Dec31, !- Name
  Supply Air Temp Default 2,              !- Sunday Schedule:Day Name
  Supply Air Temp Default 2,              !- Monday Schedule:Day Name
  Supply Air Temp Default 2,              !- Tuesday Schedule:Day Name
  Supply Air Temp Default 2,              !- Wednesday Schedule:Day Name
  Supply Air Temp Default 2,              !- Thursday Schedule:Day Name
  Supply Air Temp Default 2,              !- Friday Schedule:Day Name
  Supply Air Temp Default 2,              !- Saturday Schedule:Day Name
  Supply Air Temp Default 2,              !- Holiday Schedule:Day Name
  Supply Air Temp Default 2,              !- SummerDesignDay Schedule:Day Name
  Supply Air Temp Default 2,              !- WinterDesignDay Schedule:Day Name
  Supply Air Temp Default 2,              !- CustomDay1 Schedule:Day Name
  Supply Air Temp Default 2;              !- CustomDay2 Schedule:Day Name

Schedule:Year,
  Supply Air Temp 2,                      !- Name
  Temperature,                            !- Schedule Type Limits Name
  Supply Air Temp 2 Week Rule - Jan1-Dec31, !- Schedule:Week Name 1
  1,                                      !- Start Month 1
  1,                                      !- Start Day 1
  12,                                     !- End Month 1
  31;                                     !- End Day 1

Schedule:Week:Daily,
  Water Heater Ambient Temp Schedule 71.6F Week Rule - Jan1-Dec31, !- Name
  Water Heater Ambient Temp Schedule 71.6F Default, !- Sunday Schedule:Day Name
  Water Heater Ambient Temp Schedule 71.6F Default, !- Monday Schedule:Day Name
  Water Heater Ambient Temp Schedule 71.6F Default, !- Tuesday Schedule:Day Name
  Water Heater Ambient Temp Schedule 71.6F Default, !- Wednesday Schedule:Day Name
  Water Heater Ambient Temp Schedule 71.6F Default, !- Thursday Schedule:Day Name
  Water Heater Ambient Temp Schedule 71.6F Default, !- Friday Schedule:Day Name
  Water Heater Ambient Temp Schedule 71.6F Default, !- Saturday Schedule:Day Name
  Water Heater Ambient Temp Schedule 71.6F Default, !- Holiday Schedule:Day Name
  Water Heater Ambient Temp Schedule 71.6F Default, !- SummerDesignDay Schedule:Day Name
  Water Heater Ambient Temp Schedule 71.6F Default, !- WinterDesignDay Schedule:Day Name
  Water Heater Ambient Temp Schedule 71.6F Default, !- CustomDay1 Schedule:Day Name
  Water Heater Ambient Temp Schedule 71.6F Default; !- CustomDay2 Schedule:Day Name

Schedule:Year,
  Water Heater Ambient Temp Schedule 71.6F, !- Name
  Temperature,                            !- Schedule Type Limits Name
  Water Heater Ambient Temp Schedule 71.6F Week Rule - Jan1-Dec31, !- Schedule:Week Name 1
  1,                                      !- Start Month 1
  1,                                      !- Start Day 1
  12,                                     !- End Month 1
  31;                                     !- End Day 1

OutdoorAir:Node,
  Model Outdoor Air Node;                 !- Name

AirLoopHVAC,
  sys_6|mixed|shr>erv|sc>ccashp|sh>ccashp|ssf>vv|zh>b-e|zc>none|srf>vv|, !- Name
  ,                                       !- Controller List Name
  Air Loop HVAC 1 AvailabilityManagerAssignmentList, !- Availability Manager List Name
  AutoSize,                               !- Design Supply Air Flow Rate {m3/s}
  sys_6|mixed|shr>erv|sc>ccashp|sh>ccashp|ssf>vv|zh>b-e|zc>none|srf>vv| Supply Branches, !- Branch List Name
  ,                                       !- Connector List Name
  sys_6|mixed|shr>erv|sc>ccashp|sh>ccashp|ssf>vv|zh>b-e|zc>none|srf>vv| Supply Inlet Node, !- Supply Side Inlet Node Name
  sys_6|mixed|shr>erv|sc>ccashp|sh>ccashp|ssf>vv|zh>b-e|zc>none|srf>vv| Demand Outlet Node, !- Demand Side Outlet Node Name
  sys_6|mixed|shr>erv|sc>ccashp|sh>ccashp|ssf>vv|zh>b-e|zc>none|srf>vv| Demand Inlet Nodes, !- Demand Side Inlet Node Names
  sys_6|mixed|shr>erv|sc>ccashp|sh>ccashp|ssf>vv|zh>b-e|zc>none|srf>vv| Supply Outlet Nodes, !- Supply Side Outlet Node Names
  1;                                      !- Design Return Air Flow Fraction of Supply Air Flow

NodeList,
  sys_6|mixed|shr>erv|sc>ccashp|sh>ccashp|ssf>vv|zh>b-e|zc>none|srf>vv| Supply Outlet Nodes, !- Name
  sys_6|mixed|shr>erv|sc>ccashp|sh>ccashp|ssf>vv|zh>b-e|zc>none|srf>vv| Supply Outlet Node; !- Node Name 1

NodeList,
  sys_6|mixed|shr>erv|sc>ccashp|sh>ccashp|ssf>vv|zh>b-e|zc>none|srf>vv| Demand Inlet Nodes, !- Name
  sys_6|mixed|shr>erv|sc>ccashp|sh>ccashp|ssf>vv|zh>b-e|zc>none|srf>vv| Demand Inlet Node; !- Node Name 1

Sizing:System,
  sys_6|mixed|shr>erv|sc>ccashp|sh>ccashp|ssf>vv|zh>b-e|zc>none|srf>vv|, !- AirLoop Name
  Sensible,                               !- Type of Load to Size On
  Autosize,                               !- Design Outdoor Air Flow Rate {m3/s}
  1,                                      !- Central Heating Maximum System Air Flow Ratio
  7,                                      !- Preheat Design Temperature {C}
  0.008,                                  !- Preheat Design Humidity Ratio {kgWater/kgDryAir}
  13,                                     !- Precool Design Temperature {C}
  0.008,                                  !- Precool Design Humidity Ratio {kgWater/kgDryAir}
  13,                                     !- Central Cooling Design Supply Air Temperature {C}
  43,                                     !- Central Heating Design Supply Air Temperature {C}
  NonCoincident,                          !- Type of Zone Sum to Use
  No,                                     !- 100% Outdoor Air in Cooling
  No,                                     !- 100% Outdoor Air in Heating
  0.0085,                                 !- Central Cooling Design Supply Air Humidity Ratio {kgWater/kgDryAir}
  0.008,                                  !- Central Heating Design Supply Air Humidity Ratio {kgWater/kgDryAir}
  DesignDay,                              !- Cooling Supply Air Flow Rate Method
  0,                                      !- Cooling Supply Air Flow Rate {m3/s}
  0.0099676501,                           !- Cooling Supply Air Flow Rate Per Floor Area {m3/s-m2}
  1,                                      !- Cooling Fraction of Autosized Cooling Supply Air Flow Rate
  3.9475456e-05,                          !- Cooling Supply Air Flow Rate Per Unit Cooling Capacity {m3/s-W}
  DesignDay,                              !- Heating Supply Air Flow Rate Method
  0,                                      !- Heating Supply Air Flow Rate {m3/s}
  0.0099676501,                           !- Heating Supply Air Flow Rate Per Floor Area {m3/s-m2}
  1,                                      !- Heating Fraction of Autosized Heating Supply Air Flow Rate
  1,                                      !- Heating Fraction of Autosized Cooling Supply Air Flow Rate
  3.1588213e-05,                          !- Heating Supply Air Flow Rate Per Unit Heating Capacity {m3/s-W}
  ZoneSum,                                !- System Outdoor Air Method
  1,                                      !- Zone Maximum Outdoor Air Fraction {dimensionless}
  CoolingDesignCapacity,                  !- Cooling Design Capacity Method
  Autosize,                               !- Cooling Design Capacity {W}
  234.7,                                  !- Cooling Design Capacity Per Floor Area {W/m2}
  1,                                      !- Fraction of Autosized Cooling Design Capacity
  HeatingDesignCapacity,                  !- Heating Design Capacity Method
  Autosize,                               !- Heating Design Capacity {W}
  157,                                    !- Heating Design Capacity Per Floor Area {W/m2}
  1,                                      !- Fraction of Autosized Heating Design Capacity
  OnOff,                                  !- Central Cooling Capacity Control Method
  Autosize;                               !- Occupant Diversity

AvailabilityManagerAssignmentList,
  Air Loop HVAC 1 AvailabilityManagerAssignmentList, !- Name
  AvailabilityManager:NightCycle,         !- Availability Manager Object Type 1
  Availability Manager Night Cycle 1;     !- Availability Manager Name 1

AvailabilityManager:NightCycle,
  Availability Manager Night Cycle 1,     !- Name
  Always On Discrete,                     !- Applicability Schedule Name
  sys_6|mixed|shr>none|sc>ccashp|sh>ccashp|ssf>vv|zh>b-e|zc>none|srf>vv| Occ Sch, !- Fan Schedule Name
  CycleOnAny,                             !- Control Type
  1,                                      !- Thermostat Tolerance {deltaC}
  FixedRunTime,                           !- Cycling Run Time Control Type
  3600;                                   !- Cycling Run Time {s}

BranchList,
  sys_6|mixed|shr>erv|sc>ccashp|sh>ccashp|ssf>vv|zh>b-e|zc>none|srf>vv| Supply Branches, !- Name
  sys_6|mixed|shr>erv|sc>ccashp|sh>ccashp|ssf>vv|zh>b-e|zc>none|srf>vv| Main Branch; !- Branch Name 1

Branch,
  sys_6|mixed|shr>erv|sc>ccashp|sh>ccashp|ssf>vv|zh>b-e|zc>none|srf>vv| Main Branch, !- Name
  ,                                       !- Pressure Drop Curve Name
  Fan:VariableVolume,                     !- Component Object Type 1
  Return Fan,                             !- Component Name 1
  sys_6|mixed|shr>erv|sc>ccashp|sh>ccashp|ssf>vv|zh>b-e|zc>none|srf>vv| Supply Inlet Node, !- Component Inlet Node Name 1
  Return Fan Outlet Air Node,             !- Component Outlet Node Name 1
  AirLoopHVAC:OutdoorAirSystem,           !- Component Object Type 2
  Air Loop HVAC Outdoor Air System 1,     !- Component Name 2
  Return Fan Outlet Air Node,             !- Component Inlet Node Name 2
  sys_6|mixed|shr>erv|sc>ccashp|sh>ccashp|ssf>vv|zh>b-e|zc>none|srf>vv| Mixed Air Node, !- Component Outlet Node Name 2
  CoilSystem:Cooling:DX,                  !- Component Object Type 3
  CoilCoolingDXVariableSpeed_CCASHP CoilSystem, !- Component Name 3
  sys_6|mixed|shr>erv|sc>ccashp|sh>ccashp|ssf>vv|zh>b-e|zc>none|srf>vv| Mixed Air Node, !- Component Inlet Node Name 3
  CoilCoolingDXVariableSpeed_CCASHP Outlet Air Node, !- Component Outlet Node Name 3
  CoilSystem:Heating:DX,                  !- Component Object Type 4
  CoilHeatingDXVariableSpeed_CCASHP CoilSystem, !- Component Name 4
  CoilCoolingDXVariableSpeed_CCASHP Outlet Air Node, !- Component Inlet Node Name 4
  CoilHeatingDXVariableSpeed_CCASHP Outlet Air Node, !- Component Outlet Node Name 4
  Coil:Heating:Electric,                  !- Component Object Type 5
  CoilHeatingElectric,                    !- Component Name 5
  CoilHeatingDXVariableSpeed_CCASHP Outlet Air Node, !- Component Inlet Node Name 5
  CoilHeatingElectric Outlet Air Node,    !- Component Outlet Node Name 5
  Fan:VariableVolume,                     !- Component Object Type 6
  Supply Fan,                             !- Component Name 6
  CoilHeatingElectric Outlet Air Node,    !- Component Inlet Node Name 6
  sys_6|mixed|shr>erv|sc>ccashp|sh>ccashp|ssf>vv|zh>b-e|zc>none|srf>vv| Supply Outlet Node; !- Component Outlet Node Name 6

Fan:VariableVolume,
  Return Fan,                             !- Name
  sys_6|mixed|shr>none|sc>ccashp|sh>ccashp|ssf>vv|zh>b-e|zc>none|srf>vv| Occ Sch, !- Availability Schedule Name
  0.299975,                               !- Fan Total Efficiency
  250,                                    !- Pressure Rise {Pa}
  AutoSize,                               !- Maximum Flow Rate {m3/s}
  Fraction,                               !- Fan Power Minimum Flow Rate Input Method
  0.68,                                   !- Fan Power Minimum Flow Fraction
  0,                                      !- Fan Power Minimum Air Flow Rate {m3/s}
  0.4615,                                 !- Motor Efficiency
  1,                                      !- Motor In Airstream Fraction
  -2.4176,                                !- Fan Power Coefficient 1
  9.5874,                                 !- Fan Power Coefficient 2
  -11.559,                                !- Fan Power Coefficient 3
  5.4009,                                 !- Fan Power Coefficient 4
  0,                                      !- Fan Power Coefficient 5
  sys_6|mixed|shr>erv|sc>ccashp|sh>ccashp|ssf>vv|zh>b-e|zc>none|srf>vv| Supply Inlet Node, !- Air Inlet Node Name
  Return Fan Outlet Air Node,             !- Air Outlet Node Name
  General;                                !- End-Use Subcategory

SetpointManager:MixedAir,
  Return Fan Outlet Air Node OS Default SPM, !- Name
  Temperature,                            !- Control Variable
  sys_6|mixed|shr>erv|sc>ccashp|sh>ccashp|ssf>vv|zh>b-e|zc>none|srf>vv| Supply Outlet Node, !- Reference Setpoint Node Name
  CoilHeatingElectric Outlet Air Node,    !- Fan Inlet Node Name
  sys_6|mixed|shr>erv|sc>ccashp|sh>ccashp|ssf>vv|zh>b-e|zc>none|srf>vv| Supply Outlet Node, !- Fan Outlet Node Name
  Return Fan Outlet Air Node;             !- Setpoint Node or NodeList Name

AirLoopHVAC:OutdoorAirSystem,
  Air Loop HVAC Outdoor Air System 1,     !- Name
  Air Loop HVAC Outdoor Air System 1 Controller List, !- Controller List Name
  Air Loop HVAC Outdoor Air System 1 Equipment List; !- Outdoor Air Equipment List Name

AirLoopHVAC:ControllerList,
  Air Loop HVAC Outdoor Air System 1 Controller List, !- Name
  Controller:OutdoorAir,                  !- Controller Object Type 1
  Controller Outdoor Air 1;               !- Controller Name 1

Controller:OutdoorAir,
  Controller Outdoor Air 1,               !- Name
  sys_6|mixed|shr>none|sc>ccashp|sh>ccashp|ssf>vv|zh>b-e|zc>none|srf>vv| ERV Secondary Inlet Air Node, !- Relief Air Outlet Node Name
  Return Fan Outlet Air Node,             !- Return Air Node Name
  sys_6|mixed|shr>erv|sc>ccashp|sh>ccashp|ssf>vv|zh>b-e|zc>none|srf>vv| Mixed Air Node, !- Mixed Air Node Name
  sys_6|mixed|shr>erv|sc>ccashp|sh>ccashp|ssf>vv|zh>b-e|zc>none|srf>vv| Outdoor Air Node, !- Actuator Node Name
  Autosize,                               !- Minimum Outdoor Air Flow Rate {m3/s}
  Autosize,                               !- Maximum Outdoor Air Flow Rate {m3/s}
  DifferentialEnthalpy,                   !- Economizer Control Type
  ModulateFlow,                           !- Economizer Control Action Type
  ,                                       !- Economizer Maximum Limit Dry-Bulb Temperature {C}
  ,                                       !- Economizer Maximum Limit Enthalpy {J/kg}
  ,                                       !- Economizer Maximum Limit Dewpoint Temperature {C}
  ,                                       !- Electronic Enthalpy Limit Curve Name
  ,                                       !- Economizer Minimum Limit Dry-Bulb Temperature {C}
  NoLockout,                              !- Lockout Type
  FixedMinimum,                           !- Minimum Limit Type
  sys_6|mixed|shr>none|sc>ccashp|sh>ccashp|ssf>vv|zh>b-e|zc>none|srf>vv| Occ Sch, !- Minimum Outdoor Air Schedule Name
  ,                                       !- Minimum Fraction of Outdoor Air Schedule Name
  ,                                       !- Maximum Fraction of Outdoor Air Schedule Name
  Controller Mechanical Ventilation 1,    !- Mechanical Ventilation Controller Name
  ,                                       !- Time of Day Economizer Control Schedule Name
  No,                                     !- High Humidity Control
  ,                                       !- Humidistat Control Zone Name
  1,                                      !- High Humidity Outdoor Air Flow Ratio
  Yes,                                    !- Control High Indoor Humidity Based on Outdoor Humidity Ratio
  BypassWhenOAFlowGreaterThanMinimum,     !- Heat Recovery Bypass Control Type
  InterlockedWithMechanicalCooling;       !- Economizer Operation Staging

OutdoorAir:NodeList,
  sys_6|mixed|shr>erv|sc>ccashp|sh>ccashp|ssf>vv|zh>b-e|zc>none|srf>vv| Outdoor Air Node; !- Node or NodeList Name 1

AirLoopHVAC:OutdoorAirSystem:EquipmentList,
  Air Loop HVAC Outdoor Air System 1 Equipment List, !- Name
  OutdoorAir:Mixer,                       !- Component Object Type 1
  Air Loop HVAC Outdoor Air System 1 Outdoor Air Mixer, !- Component Name 1
  HeatExchanger:AirToAir:SensibleAndLatent, !- Component Object Type 2
  sys_6|mixed|shr>none|sc>ccashp|sh>ccashp|ssf>vv|zh>b-e|zc>none|srf>vv| ERV; !- Component Name 2

OutdoorAir:Mixer,
  Air Loop HVAC Outdoor Air System 1 Outdoor Air Mixer, !- Name
  sys_6|mixed|shr>erv|sc>ccashp|sh>ccashp|ssf>vv|zh>b-e|zc>none|srf>vv| Mixed Air Node, !- Mixed Air Node Name
  sys_6|mixed|shr>none|sc>ccashp|sh>ccashp|ssf>vv|zh>b-e|zc>none|srf>vv| ERV Primary Outlet Air Node, !- Outdoor Air Stream Node Name
  sys_6|mixed|shr>none|sc>ccashp|sh>ccashp|ssf>vv|zh>b-e|zc>none|srf>vv| ERV Secondary Inlet Air Node, !- Relief Air Stream Node Name
  Return Fan Outlet Air Node;             !- Return Air Stream Node Name

HeatExchanger:AirToAir:SensibleAndLatent,
  sys_6|mixed|shr>none|sc>ccashp|sh>ccashp|ssf>vv|zh>b-e|zc>none|srf>vv| ERV, !- Name
  Always On Discrete,                     !- Availability Schedule Name
  Autosize,                               !- Nominal Supply Air Flow Rate {m3/s}
  0.5,                                    !- Sensible Effectiveness at 100% Heating Air Flow {dimensionless}
  0.5,                                    !- Latent Effectiveness at 100% Heating Air Flow {dimensionless}
  0.5,                                    !- Sensible Effectiveness at 100% Cooling Air Flow {dimensionless}
  0.5,                                    !- Latent Effectiveness at 100% Cooling Air Flow {dimensionless}
  sys_6|mixed|shr>erv|sc>ccashp|sh>ccashp|ssf>vv|zh>b-e|zc>none|srf>vv| Outdoor Air Node, !- Supply Air Inlet Node Name
  sys_6|mixed|shr>none|sc>ccashp|sh>ccashp|ssf>vv|zh>b-e|zc>none|srf>vv| ERV Primary Outlet Air Node, !- Supply Air Outlet Node Name
  sys_6|mixed|shr>none|sc>ccashp|sh>ccashp|ssf>vv|zh>b-e|zc>none|srf>vv| ERV Secondary Inlet Air Node, !- Exhaust Air Inlet Node Name
  sys_6|mixed|shr>erv|sc>ccashp|sh>ccashp|ssf>vv|zh>b-e|zc>none|srf>vv| Relief Air Node, !- Exhaust Air Outlet Node Name
  564.521132154065,                       !- Nominal Electric Power {W}
  Yes,                                    !- Supply Air Outlet Temperature Control
  Rotary,                                 !- Heat Exchanger Type
  ExhaustOnly,                            !- Frost Control Type
  -23.3,                                  !- Threshold Temperature {C}
  0.167,                                  !- Initial Defrost Time Fraction {dimensionless}
  1.44,                                   !- Rate of Defrost Time Fraction Increase {1/K}
  Yes,                                    !- Economizer Lockout
  sys_6|mixed|shr>none|sc>ccashp|sh>ccashp|ssf>vv|zh>b-e|zc>none|srf>vv| ERV_SensHeatEff 1, !- Sensible Effectiveness of Heating Air Flow Curve Name
  sys_6|mixed|shr>none|sc>ccashp|sh>ccashp|ssf>vv|zh>b-e|zc>none|srf>vv| ERV_LatHeatEff 1, !- Latent Effectiveness of Heating Air Flow Curve Name
  sys_6|mixed|shr>none|sc>ccashp|sh>ccashp|ssf>vv|zh>b-e|zc>none|srf>vv| ERV_SensCoolEff 1, !- Sensible Effectiveness of Cooling Air Flow Curve Name
  sys_6|mixed|shr>none|sc>ccashp|sh>ccashp|ssf>vv|zh>b-e|zc>none|srf>vv| ERV_LatCoolEff 1; !- Latent Effectiveness of Cooling Air Flow Curve Name

Table:Lookup,
  sys_6|mixed|shr>none|sc>ccashp|sh>ccashp|ssf>vv|zh>b-e|zc>none|srf>vv| ERV_SensHeatEff 1, !- Name
  sys_6|mixed|shr>none|sc>ccashp|sh>ccashp|ssf>vv|zh>b-e|zc>none|srf>vv| ERV_SensHeatEff 1 Independent Variable List, !- Independent Variable List Name
  DivisorOnly,                            !- Normalization Method
  0.5,                                    !- Normalization Divisor
  0,                                      !- Minimum Output {BasedOnField A4}
  10,                                     !- Maximum Output {BasedOnField A4}
  Dimensionless,                          !- Output Unit Type
  ,                                       !- External File Name
  ,                                       !- External File Column Number
  ,                                       !- External File Starting Row Number
  0.5,                                    !- Output Value 1 {BasedOnField A4}
  0.5;                                    !- Output Value 2 {BasedOnField A4}

Table:IndependentVariableList,
  sys_6|mixed|shr>none|sc>ccashp|sh>ccashp|ssf>vv|zh>b-e|zc>none|srf>vv| ERV_SensHeatEff 1 Independent Variable List, !- Name
  sys_6|mixed|shr>none|sc>ccashp|sh>ccashp|ssf>vv|zh>b-e|zc>none|srf>vv| ERV_SensibleHeating_IndependentVariable; !- Independent Variable Name 1

Table:IndependentVariable,
  sys_6|mixed|shr>none|sc>ccashp|sh>ccashp|ssf>vv|zh>b-e|zc>none|srf>vv| ERV_SensibleHeating_IndependentVariable, !- Name
  Linear,                                 !- Interpolation Method
  Linear,                                 !- Extrapolation Method
  0,                                      !- Minimum Value {BasedOnField A4}
  10,                                     !- Maximum Value {BasedOnField A4}
  ,                                       !- Normalization Reference Value {BasedOnField A4}
  Dimensionless,                          !- Unit Type
  ,                                       !- External File Name
  ,                                       !- External File Column Number
  ,                                       !- External File Starting Row Number
  0.75,                                   !- Value 1
  1;                                      !- Value 2

Table:Lookup,
  sys_6|mixed|shr>none|sc>ccashp|sh>ccashp|ssf>vv|zh>b-e|zc>none|srf>vv| ERV_LatHeatEff 1, !- Name
  sys_6|mixed|shr>none|sc>ccashp|sh>ccashp|ssf>vv|zh>b-e|zc>none|srf>vv| ERV_LatHeatEff 1 Independent Variable List, !- Independent Variable List Name
  DivisorOnly,                            !- Normalization Method
  0.5,                                    !- Normalization Divisor
  0,                                      !- Minimum Output {BasedOnField A4}
  10,                                     !- Maximum Output {BasedOnField A4}
  Dimensionless,                          !- Output Unit Type
  ,                                       !- External File Name
  ,                                       !- External File Column Number
  ,                                       !- External File Starting Row Number
  0.5,                                    !- Output Value 1 {BasedOnField A4}
  0.5;                                    !- Output Value 2 {BasedOnField A4}

Table:IndependentVariableList,
  sys_6|mixed|shr>none|sc>ccashp|sh>ccashp|ssf>vv|zh>b-e|zc>none|srf>vv| ERV_LatHeatEff 1 Independent Variable List, !- Name
  sys_6|mixed|shr>none|sc>ccashp|sh>ccashp|ssf>vv|zh>b-e|zc>none|srf>vv| ERV_LatentHeating_IndependentVariable; !- Independent Variable Name 1

Table:IndependentVariable,
  sys_6|mixed|shr>none|sc>ccashp|sh>ccashp|ssf>vv|zh>b-e|zc>none|srf>vv| ERV_LatentHeating_IndependentVariable, !- Name
  Linear,                                 !- Interpolation Method
  Linear,                                 !- Extrapolation Method
  0,                                      !- Minimum Value {BasedOnField A4}
  10,                                     !- Maximum Value {BasedOnField A4}
  ,                                       !- Normalization Reference Value {BasedOnField A4}
  Dimensionless,                          !- Unit Type
  ,                                       !- External File Name
  ,                                       !- External File Column Number
  ,                                       !- External File Starting Row Number
  0.75,                                   !- Value 1
  1;                                      !- Value 2

Table:Lookup,
  sys_6|mixed|shr>none|sc>ccashp|sh>ccashp|ssf>vv|zh>b-e|zc>none|srf>vv| ERV_SensCoolEff 1, !- Name
  sys_6|mixed|shr>none|sc>ccashp|sh>ccashp|ssf>vv|zh>b-e|zc>none|srf>vv| ERV_SensCoolEff 1 Independent Variable List, !- Independent Variable List Name
  DivisorOnly,                            !- Normalization Method
  0.5,                                    !- Normalization Divisor
  0,                                      !- Minimum Output {BasedOnField A4}
  10,                                     !- Maximum Output {BasedOnField A4}
  Dimensionless,                          !- Output Unit Type
  ,                                       !- External File Name
  ,                                       !- External File Column Number
  ,                                       !- External File Starting Row Number
  0.5,                                    !- Output Value 1 {BasedOnField A4}
  0.5;                                    !- Output Value 2 {BasedOnField A4}

Table:IndependentVariableList,
  sys_6|mixed|shr>none|sc>ccashp|sh>ccashp|ssf>vv|zh>b-e|zc>none|srf>vv| ERV_SensCoolEff 1 Independent Variable List, !- Name
  sys_6|mixed|shr>none|sc>ccashp|sh>ccashp|ssf>vv|zh>b-e|zc>none|srf>vv| ERV_SensibleCooling_IndependentVariable; !- Independent Variable Name 1

Table:IndependentVariable,
  sys_6|mixed|shr>none|sc>ccashp|sh>ccashp|ssf>vv|zh>b-e|zc>none|srf>vv| ERV_SensibleCooling_IndependentVariable, !- Name
  Linear,                                 !- Interpolation Method
  Linear,                                 !- Extrapolation Method
  0,                                      !- Minimum Value {BasedOnField A4}
  10,                                     !- Maximum Value {BasedOnField A4}
  ,                                       !- Normalization Reference Value {BasedOnField A4}
  Dimensionless,                          !- Unit Type
  ,                                       !- External File Name
  ,                                       !- External File Column Number
  ,                                       !- External File Starting Row Number
  0.75,                                   !- Value 1
  1;                                      !- Value 2

Table:Lookup,
  sys_6|mixed|shr>none|sc>ccashp|sh>ccashp|ssf>vv|zh>b-e|zc>none|srf>vv| ERV_LatCoolEff 1, !- Name
  sys_6|mixed|shr>none|sc>ccashp|sh>ccashp|ssf>vv|zh>b-e|zc>none|srf>vv| ERV_LatCoolEff 1 Independent Variable List, !- Independent Variable List Name
  DivisorOnly,                            !- Normalization Method
  0.5,                                    !- Normalization Divisor
  0,                                      !- Minimum Output {BasedOnField A4}
  10,                                     !- Maximum Output {BasedOnField A4}
  Dimensionless,                          !- Output Unit Type
  ,                                       !- External File Name
  ,                                       !- External File Column Number
  ,                                       !- External File Starting Row Number
  0.5,                                    !- Output Value 1 {BasedOnField A4}
  0.5;                                    !- Output Value 2 {BasedOnField A4}

Table:IndependentVariableList,
  sys_6|mixed|shr>none|sc>ccashp|sh>ccashp|ssf>vv|zh>b-e|zc>none|srf>vv| ERV_LatCoolEff 1 Independent Variable List, !- Name
  sys_6|mixed|shr>none|sc>ccashp|sh>ccashp|ssf>vv|zh>b-e|zc>none|srf>vv| ERV_LatentCooling_IndependentVariable; !- Independent Variable Name 1

Table:IndependentVariable,
  sys_6|mixed|shr>none|sc>ccashp|sh>ccashp|ssf>vv|zh>b-e|zc>none|srf>vv| ERV_LatentCooling_IndependentVariable, !- Name
  Linear,                                 !- Interpolation Method
  Linear,                                 !- Extrapolation Method
  0,                                      !- Minimum Value {BasedOnField A4}
  10,                                     !- Maximum Value {BasedOnField A4}
  ,                                       !- Normalization Reference Value {BasedOnField A4}
  Dimensionless,                          !- Unit Type
  ,                                       !- External File Name
  ,                                       !- External File Column Number
  ,                                       !- External File Starting Row Number
  0.75,                                   !- Value 1
  1;                                      !- Value 2

SetpointManager:OutdoorAirPretreat,
  Setpoint Manager Outdoor Air Pretreat 1, !- Name
  Temperature,                            !- Control Variable
  -99,                                    !- Minimum Setpoint Temperature {C}
  99,                                     !- Maximum Setpoint Temperature {C}
  1e-05,                                  !- Minimum Setpoint Humidity Ratio {kgWater/kgDryAir}
  1,                                      !- Maximum Setpoint Humidity Ratio {kgWater/kgDryAir}
  sys_6|mixed|shr>erv|sc>ccashp|sh>ccashp|ssf>vv|zh>b-e|zc>none|srf>vv| Mixed Air Node, !- Reference Setpoint Node Name
  sys_6|mixed|shr>erv|sc>ccashp|sh>ccashp|ssf>vv|zh>b-e|zc>none|srf>vv| Mixed Air Node, !- Mixed Air Stream Node Name
  sys_6|mixed|shr>erv|sc>ccashp|sh>ccashp|ssf>vv|zh>b-e|zc>none|srf>vv| Outdoor Air Node, !- Outdoor Air Stream Node Name
  Return Fan Outlet Air Node,             !- Return Air Stream Node Name
  sys_6|mixed|shr>none|sc>ccashp|sh>ccashp|ssf>vv|zh>b-e|zc>none|srf>vv| ERV Primary Outlet Air Node; !- Setpoint Node or NodeList Name

SetpointManager:MixedAir,
  sys_6|mixed|shr>erv|sc>ccashp|sh>ccashp|ssf>vv|zh>b-e|zc>none|srf>vv| Mixed Air Node OS Default SPM, !- Name
  Temperature,                            !- Control Variable
  sys_6|mixed|shr>erv|sc>ccashp|sh>ccashp|ssf>vv|zh>b-e|zc>none|srf>vv| Supply Outlet Node, !- Reference Setpoint Node Name
  CoilHeatingElectric Outlet Air Node,    !- Fan Inlet Node Name
  sys_6|mixed|shr>erv|sc>ccashp|sh>ccashp|ssf>vv|zh>b-e|zc>none|srf>vv| Supply Outlet Node, !- Fan Outlet Node Name
  sys_6|mixed|shr>erv|sc>ccashp|sh>ccashp|ssf>vv|zh>b-e|zc>none|srf>vv| Mixed Air Node; !- Setpoint Node or NodeList Name

CoilSystem:Cooling:DX,
  CoilCoolingDXVariableSpeed_CCASHP CoilSystem, !- Name
  ,                                       !- Availability Schedule Name
  sys_6|mixed|shr>erv|sc>ccashp|sh>ccashp|ssf>vv|zh>b-e|zc>none|srf>vv| Mixed Air Node, !- DX Cooling Coil System Inlet Node Name
  CoilCoolingDXVariableSpeed_CCASHP Outlet Air Node, !- DX Cooling Coil System Outlet Node Name
  CoilCoolingDXVariableSpeed_CCASHP Outlet Air Node, !- DX Cooling Coil System Sensor Node Name
  Coil:Cooling:DX:VariableSpeed,          !- Cooling Coil Object Type
  CoilCoolingDXVariableSpeed_CCASHP;      !- Cooling Coil Name

Coil:Cooling:DX:VariableSpeed,
  CoilCoolingDXVariableSpeed_CCASHP,      !- Name
  sys_6|mixed|shr>erv|sc>ccashp|sh>ccashp|ssf>vv|zh>b-e|zc>none|srf>vv| Mixed Air Node, !- Indoor Air Inlet Node Name
  CoilCoolingDXVariableSpeed_CCASHP Outlet Air Node, !- Indoor Air Outlet Node Name
  1,                                      !- Number of Speeds {dimensionless}
  1,                                      !- Nominal Speed Level {dimensionless}
  75043,                                  !- Gross Rated Total Cooling Capacity At Selected Nominal Speed Level {W}
  AutoSize,                               !- Rated Air Flow Rate At Selected Nominal Speed Level {m3/s}
  0,                                      !- Nominal Time for Condensate to Begin Leaving the Coil {s}
  0,                                      !- Initial Moisture Evaporation Rate Divided by Steady-State AC Latent Capacity {dimensionless}
  2.5,                                    !- Maximum Cycling Rate {cycles/hr}
  60,                                     !- Latent Capacity Time Constant {s}
  60,                                     !- Fan Delay Time {s}
  Mitsubishi Hyper Heating VRF Outdoor Unit CPLFFPLR curve, !- Energy Part Load Fraction Curve Name
  ,                                       !- Condenser Air Inlet Node Name
  AirCooled,                              !- Condenser Type
  0,                                      !- Evaporative Condenser Pump Rated Power Consumption {W}
  1e-06,                                  !- Crankcase Heater Capacity {W}
  ,                                       !- Crankcase Heater Capacity Function of Temperature Curve Name
  10,                                     !- Maximum Outdoor Dry-Bulb Temperature for Crankcase Heater Operation {C}
  -25,                                    !- Minimum Outdoor Dry-Bulb Temperature for Compressor Operation {C}
  ,                                       !- Supply Water Storage Tank Name
  ,                                       !- Condensate Collection Water Storage Tank Name
  0,                                      !- Basin Heater Capacity {W/K}
  2,                                      !- Basin Heater Setpoint Temperature {C}
  ,                                       !- Basin Heater Operating Schedule Name
  8914.185229,                            !- Speed Reference Unit Gross Rated Total Cooling Capacity 1 {W}
  0.79,                                   !- Speed Reference Unit Gross Rated Sensible Heat Ratio 1 {dimensionless}
  3.76,                                   !- Speed Reference Unit Gross Rated Cooling COP 1 {W/W}
  0.944,                                  !- Speed Reference Unit Rated Air Flow Rate 1 {m3/s}
  773.3,                                  !- Speed Rated Evaporator Fan Power Per Volume Flow Rate 2017 1 {W/(m3/s)}
  934.4,                                  !- Speed Rated Evaporator Fan Power Per Volume Flow Rate 2023 1 {W/(m3/s)}
  ,                                       !- Speed Reference Unit Rated Condenser Air Flow Rate 1 {m3/s}
  ,                                       !- Speed Reference Unit Rated Pad Effectiveness of Evap Precooling 1 {dimensionless}
  Mitsubishi Hyper Heating VRF Outdoor Unit CCAPFT curve, !- Speed Total Cooling Capacity Function of Temperature Curve Name 1
  Mitsubishi Hyper Heating VRF Outdoor Unit CCAPFFF curve, !- Speed Total Cooling Capacity Function of Air Flow Fraction Curve Name 1
  Mitsubishi Hyper Heating VRF Outdoor Unit CEIRFT curve, !- Speed Energy Input Ratio Function of Temperature Curve Name 1
  Mitsubishi Hyper Heating VRF Outdoor Unit CEIRFFF curve; !- Speed Energy Input Ratio Function of Air Flow Fraction Curve Name 1

Table:Lookup,
  Mitsubishi Hyper Heating VRF Outdoor Unit CPLFFPLR curve, !- Name
  Mitsubishi Hyper Heating VRF Outdoor Unit CPLFFPLR curve Independent Variable List, !- Independent Variable List Name
  None,                                   !- Normalization Method
  1,                                      !- Normalization Divisor
  ,                                       !- Minimum Output {BasedOnField A4}
  ,                                       !- Maximum Output {BasedOnField A4}
  Dimensionless,                          !- Output Unit Type
  ,                                       !- External File Name
  ,                                       !- External File Column Number
  ,                                       !- External File Starting Row Number
  0,                                      !- Output Value 1 {BasedOnField A4}
  0,                                      !- Output Value 2 {BasedOnField A4}
  0,                                      !- Output Value 3 {BasedOnField A4}
  0,                                      !- Output Value 4 {BasedOnField A4}
  0,                                      !- Output Value 5 {BasedOnField A4}
  0,                                      !- Output Value 6 {BasedOnField A4}
  0,                                      !- Output Value 7 {BasedOnField A4}
  0,                                      !- Output Value 8 {BasedOnField A4}
  0,                                      !- Output Value 9 {BasedOnField A4}
  0;                                      !- Output Value 10 {BasedOnField A4}

Table:IndependentVariableList,
  Mitsubishi Hyper Heating VRF Outdoor Unit CPLFFPLR curve Independent Variable List, !- Name
  Mitsubishi Hyper Heating VRF Outdoor Unit CPLFFPLR curve_ind_1; !- Independent Variable Name 1

Table:IndependentVariable,
  Mitsubishi Hyper Heating VRF Outdoor Unit CPLFFPLR curve_ind_1, !- Name
  Linear,                                 !- Interpolation Method
  Constant,                               !- Extrapolation Method
  0,                                      !- Minimum Value {BasedOnField A4}
  1,                                      !- Maximum Value {BasedOnField A4}
  ,                                       !- Normalization Reference Value {BasedOnField A4}
  Dimensionless,                          !- Unit Type
  ,                                       !- External File Name
  ,                                       !- External File Column Number
  ,                                       !- External File Starting Row Number
  0.1,                                    !- Value 1
  0.2,                                    !- Value 2
  0.3,                                    !- Value 3
  0.4,                                    !- Value 4
  0.5,                                    !- Value 5
  0.556,                                  !- Value 6
  0.694,                                  !- Value 7
  0.833,                                  !- Value 8
  0.972,                                  !- Value 9
  1;                                      !- Value 10

Curve:Biquadratic,
  Mitsubishi Hyper Heating VRF Outdoor Unit CCAPFT curve, !- Name
  0.041806043,                            !- Coefficient1 Constant
  0.064040587,                            !- Coefficient2 x
  -0.000556932,                           !- Coefficient3 x**2
  0.008407783,                            !- Coefficient4 y
  -0.00010814,                            !- Coefficient5 y**2
  -0.000333479,                           !- Coefficient6 x*y
  15,                                     !- Minimum Value of x {BasedOnField A2}
  24,                                     !- Maximum Value of x {BasedOnField A2}
  -5,                                     !- Minimum Value of y {BasedOnField A3}
  43;                                     !- Maximum Value of y {BasedOnField A3}

Curve:Quadratic,
  Mitsubishi Hyper Heating VRF Outdoor Unit CCAPFFF curve, !- Name
  0.8,                                    !- Coefficient1 Constant
  0.2,                                    !- Coefficient2 x
  0,                                      !- Coefficient3 x**2
  0.5,                                    !- Minimum Value of x {BasedOnField A2}
  1.5;                                    !- Maximum Value of x {BasedOnField A2}

Curve:Biquadratic,
  Mitsubishi Hyper Heating VRF Outdoor Unit CEIRFT curve, !- Name
  1.511153861,                            !- Coefficient1 Constant
  -0.059981125,                           !- Coefficient2 x
  0.000969596,                            !- Coefficient3 x**2
  -0.00845921,                            !- Coefficient4 y
  0.000389855,                            !- Coefficient5 y**2
  0.000125837,                            !- Coefficient6 x*y
  15,                                     !- Minimum Value of x {BasedOnField A2}
  24,                                     !- Maximum Value of x {BasedOnField A2}
  -5,                                     !- Minimum Value of y {BasedOnField A3}
  43;                                     !- Maximum Value of y {BasedOnField A3}

Curve:Quadratic,
  Mitsubishi Hyper Heating VRF Outdoor Unit CEIRFFF curve, !- Name
  1,                                      !- Coefficient1 Constant
  0,                                      !- Coefficient2 x
  0,                                      !- Coefficient3 x**2
  0,                                      !- Minimum Value of x {BasedOnField A2}
  1;                                      !- Maximum Value of x {BasedOnField A2}

SetpointManager:MixedAir,
  CoilCoolingDXVariableSpeed_CCASHP Outlet Air Node OS Default SPM, !- Name
  Temperature,                            !- Control Variable
  sys_6|mixed|shr>erv|sc>ccashp|sh>ccashp|ssf>vv|zh>b-e|zc>none|srf>vv| Supply Outlet Node, !- Reference Setpoint Node Name
  CoilHeatingElectric Outlet Air Node,    !- Fan Inlet Node Name
  sys_6|mixed|shr>erv|sc>ccashp|sh>ccashp|ssf>vv|zh>b-e|zc>none|srf>vv| Supply Outlet Node, !- Fan Outlet Node Name
  CoilCoolingDXVariableSpeed_CCASHP Outlet Air Node; !- Setpoint Node or NodeList Name

CoilSystem:Heating:DX,
  CoilHeatingDXVariableSpeed_CCASHP CoilSystem, !- Name
  ,                                       !- Availability Schedule Name
  Coil:Heating:DX:VariableSpeed,          !- Heating Coil Object Type
  CoilHeatingDXVariableSpeed_CCASHP;      !- Heating Coil Name

Coil:Heating:DX:VariableSpeed,
  CoilHeatingDXVariableSpeed_CCASHP,      !- Name
  CoilCoolingDXVariableSpeed_CCASHP Outlet Air Node, !- Indoor Air Inlet Node Name
  CoilHeatingDXVariableSpeed_CCASHP Outlet Air Node, !- Indoor Air Outlet Node Name
  1,                                      !- Number of Speeds {dimensionless}
  1,                                      !- Nominal Speed Level {dimensionless}
  75043,                                  !- Rated Heating Capacity At Selected Nominal Speed Level {W}
  AutoSize,                               !- Rated Air Flow Rate At Selected Nominal Speed Level {m3/s}
  Mitsubishi Hyper Heating VRF Outdoor Unit HPLFFPLR curve, !- Energy Part Load Fraction Curve Name
  Mitsubishi Hyper Heating VRF Outdoor Unit Defrost HEIRFT curve, !- Defrost Energy Input Ratio Function of Temperature Curve Name
  -25,                                    !- Minimum Outdoor Dry-Bulb Temperature for Compressor Operation {C}
  ,                                       !- Outdoor Dry-Bulb Temperature to Turn On Compressor {C}
  5,                                      !- Maximum Outdoor Dry-Bulb Temperature for Defrost Operation {C}
  1e-06,                                  !- Crankcase Heater Capacity {W}
  ,                                       !- Crankcase Heater Capacity Function of Temperature Curve Name
  10,                                     !- Maximum Outdoor Dry-Bulb Temperature for Crankcase Heater Operation {C}
  ReverseCycle,                           !- Defrost Strategy
  OnDemand,                               !- Defrost Control
  0.166667,                               !- Defrost Time Period Fraction
  AutoSize,                               !- Resistive Defrost Heater Capacity {W}
  9124.853458,                            !- Speed Reference Unit Gross Rated Heating Capacity 1 {W}
  4.26759836954864,                       !- Speed Reference Unit Gross Rated Heating COP 1 {W/W}
  0.653,                                  !- Speed Reference Unit Rated Air Flow Rate 1 {m3/s}
  773.3,                                  !- Speed Rated Supply Air Fan Power Per Volume Flow Rate 2017 1 {W/(m3/s)}
  934.4,                                  !- Speed Rated Supply Air Fan Power Per Volume Flow Rate 2023 1 {W/(m3/s)}
  Mitsubishi Hyper Heating VRF Outdoor Unit HCAPFT curve, !- Speed Heating Capacity Function of Temperature Curve Name 1
  Mitsubishi Hyper Heating VRF Outdoor Unit HCAPFFF curve, !- Speed Total  Heating Capacity Function of Air Flow Fraction Curve Name 1
  Mitsubishi Hyper Heating VRF Outdoor Unit HEIRFT curve, !- Speed Energy Input Ratio Function of Temperature Curve Name 1
  Mitsubishi Hyper Heating VRF Outdoor Unit HEIRFFF curve; !- Speed Energy Input Ratio Function of Air Flow Fraction Curve Name 1

Table:Lookup,
  Mitsubishi Hyper Heating VRF Outdoor Unit HPLFFPLR curve, !- Name
  Mitsubishi Hyper Heating VRF Outdoor Unit HPLFFPLR curve Independent Variable List, !- Independent Variable List Name
  None,                                   !- Normalization Method
  1,                                      !- Normalization Divisor
  ,                                       !- Minimum Output {BasedOnField A4}
  ,                                       !- Maximum Output {BasedOnField A4}
  Dimensionless,                          !- Output Unit Type
  ,                                       !- External File Name
  ,                                       !- External File Column Number
  ,                                       !- External File Starting Row Number
  0,                                      !- Output Value 1 {BasedOnField A4}
  0,                                      !- Output Value 2 {BasedOnField A4}
  0,                                      !- Output Value 3 {BasedOnField A4}
  0,                                      !- Output Value 4 {BasedOnField A4}
  0,                                      !- Output Value 5 {BasedOnField A4}
  0,                                      !- Output Value 6 {BasedOnField A4}
  0,                                      !- Output Value 7 {BasedOnField A4}
  0,                                      !- Output Value 8 {BasedOnField A4}
  0;                                      !- Output Value 9 {BasedOnField A4}

Table:IndependentVariableList,
  Mitsubishi Hyper Heating VRF Outdoor Unit HPLFFPLR curve Independent Variable List, !- Name
  Mitsubishi Hyper Heating VRF Outdoor Unit HPLFFPLR curve_ind_1; !- Independent Variable Name 1

Table:IndependentVariable,
  Mitsubishi Hyper Heating VRF Outdoor Unit HPLFFPLR curve_ind_1, !- Name
  Linear,                                 !- Interpolation Method
  Constant,                               !- Extrapolation Method
  0,                                      !- Minimum Value {BasedOnField A4}
  1,                                      !- Maximum Value {BasedOnField A4}
  ,                                       !- Normalization Reference Value {BasedOnField A4}
  Dimensionless,                          !- Unit Type
  ,                                       !- External File Name
  ,                                       !- External File Column Number
  ,                                       !- External File Starting Row Number
  0.1,                                    !- Value 1
  0.2,                                    !- Value 2
  0.3,                                    !- Value 3
  0.4,                                    !- Value 4
  0.5,                                    !- Value 5
  0.555,                                  !- Value 6
  0.694,                                  !- Value 7
  0.833,                                  !- Value 8
  1;                                      !- Value 9

Table:Lookup,
  Mitsubishi Hyper Heating VRF Outdoor Unit Defrost HEIRFT curve, !- Name
  Mitsubishi Hyper Heating VRF Outdoor Unit Defrost HEIRFT curve Independent Variable List, !- Independent Variable List Name
  None,                                   !- Normalization Method
  1,                                      !- Normalization Divisor
  ,                                       !- Minimum Output {BasedOnField A4}
  ,                                       !- Maximum Output {BasedOnField A4}
  Dimensionless,                          !- Output Unit Type
  ,                                       !- External File Name
  ,                                       !- External File Column Number
  ,                                       !- External File Starting Row Number
  1,                                      !- Output Value 1 {BasedOnField A4}
  1,                                      !- Output Value 2 {BasedOnField A4}
  1,                                      !- Output Value 3 {BasedOnField A4}
  1,                                      !- Output Value 4 {BasedOnField A4}
  1,                                      !- Output Value 5 {BasedOnField A4}
  1,                                      !- Output Value 6 {BasedOnField A4}
  1,                                      !- Output Value 7 {BasedOnField A4}
  1,                                      !- Output Value 8 {BasedOnField A4}
  1,                                      !- Output Value 9 {BasedOnField A4}
  1,                                      !- Output Value 10 {BasedOnField A4}
  1,                                      !- Output Value 11 {BasedOnField A4}
  1,                                      !- Output Value 12 {BasedOnField A4}
  1,                                      !- Output Value 13 {BasedOnField A4}
  1,                                      !- Output Value 14 {BasedOnField A4}
  1,                                      !- Output Value 15 {BasedOnField A4}
  1,                                      !- Output Value 16 {BasedOnField A4}
  1,                                      !- Output Value 17 {BasedOnField A4}
  1,                                      !- Output Value 18 {BasedOnField A4}
  1,                                      !- Output Value 19 {BasedOnField A4}
  1,                                      !- Output Value 20 {BasedOnField A4}
  1,                                      !- Output Value 21 {BasedOnField A4}
  1;                                      !- Output Value 22 {BasedOnField A4}

Table:IndependentVariableList,
  Mitsubishi Hyper Heating VRF Outdoor Unit Defrost HEIRFT curve Independent Variable List, !- Name
  Mitsubishi Hyper Heating VRF Outdoor Unit Defrost HEIRFT curve_ind_1, !- Independent Variable Name 1
  Mitsubishi Hyper Heating VRF Outdoor Unit Defrost HEIRFT curve_ind_2; !- Independent Variable Name 2

Table:IndependentVariable,
  Mitsubishi Hyper Heating VRF Outdoor Unit Defrost HEIRFT curve_ind_1, !- Name
  Linear,                                 !- Interpolation Method
  Constant,                               !- Extrapolation Method
  15,                                     !- Minimum Value {BasedOnField A4}
  27.2,                                   !- Maximum Value {BasedOnField A4}
  ,                                       !- Normalization Reference Value {BasedOnField A4}
  Temperature,                            !- Unit Type
  ,                                       !- External File Name
  ,                                       !- External File Column Number
  ,                                       !- External File Starting Row Number
  15,                                     !- Value 1
  27.2;                                   !- Value 2

Table:IndependentVariable,
  Mitsubishi Hyper Heating VRF Outdoor Unit Defrost HEIRFT curve_ind_2, !- Name
  Linear,                                 !- Interpolation Method
  Constant,                               !- Extrapolation Method
  -25,                                    !- Minimum Value {BasedOnField A4}
  6,                                      !- Maximum Value {BasedOnField A4}
  ,                                       !- Normalization Reference Value {BasedOnField A4}
  Temperature,                            !- Unit Type
  ,                                       !- External File Name
  ,                                       !- External File Column Number
  ,                                       !- External File Starting Row Number
  -25,                                    !- Value 1
  -10,                                    !- Value 2
  -8,                                     !- Value 3
  -6,                                     !- Value 4
  -4,                                     !- Value 5
  -2,                                     !- Value 6
  0,                                      !- Value 7
  1,                                      !- Value 8
  2,                                      !- Value 9
  4,                                      !- Value 10
  6;                                      !- Value 11

Curve:Biquadratic,
  Mitsubishi Hyper Heating VRF Outdoor Unit HCAPFT curve, !- Name
  1.042427028,                            !- Coefficient1 Constant
  0.032023437,                            !- Coefficient2 x
  -0.00158028,                            !- Coefficient3 x**2
  0.025578062,                            !- Coefficient4 y
  -0.000168303,                           !- Coefficient5 y**2
  -0.001037712,                           !- Coefficient6 x*y
  15,                                     !- Minimum Value of x {BasedOnField A2}
  27.2,                                   !- Maximum Value of x {BasedOnField A2}
  -25,                                    !- Minimum Value of y {BasedOnField A3}
  15;                                     !- Maximum Value of y {BasedOnField A3}

Curve:Quadratic,
  Mitsubishi Hyper Heating VRF Outdoor Unit HCAPFFF curve, !- Name
  0.8,                                    !- Coefficient1 Constant
  0.2,                                    !- Coefficient2 x
  0,                                      !- Coefficient3 x**2
  0.5,                                    !- Minimum Value of x {BasedOnField A2}
  1.5;                                    !- Maximum Value of x {BasedOnField A2}

Curve:Biquadratic,
  Mitsubishi Hyper Heating VRF Outdoor Unit HEIRFT curve, !- Name
  1.224599145,                            !- Coefficient1 Constant
  0.005362596,                            !- Coefficient2 x
  -0.000269902,                           !- Coefficient3 x**2
  -0.041582393,                           !- Coefficient4 y
  0.000500483,                            !- Coefficient5 y**2
  0.000352842,                            !- Coefficient6 x*y
  15,                                     !- Minimum Value of x {BasedOnField A2}
  27.2,                                   !- Maximum Value of x {BasedOnField A2}
  -25,                                    !- Minimum Value of y {BasedOnField A3}
  15;                                     !- Maximum Value of y {BasedOnField A3}

Curve:Quadratic,
  Mitsubishi Hyper Heating VRF Outdoor Unit HEIRFFF curve, !- Name
  1,                                      !- Coefficient1 Constant
  0,                                      !- Coefficient2 x
  0,                                      !- Coefficient3 x**2
  0,                                      !- Minimum Value of x {BasedOnField A2}
  1;                                      !- Maximum Value of x {BasedOnField A2}

SetpointManager:MixedAir,
  CoilHeatingDXVariableSpeed_CCASHP Outlet Air Node OS Default SPM, !- Name
  Temperature,                            !- Control Variable
  sys_6|mixed|shr>erv|sc>ccashp|sh>ccashp|ssf>vv|zh>b-e|zc>none|srf>vv| Supply Outlet Node, !- Reference Setpoint Node Name
  CoilHeatingElectric Outlet Air Node,    !- Fan Inlet Node Name
  sys_6|mixed|shr>erv|sc>ccashp|sh>ccashp|ssf>vv|zh>b-e|zc>none|srf>vv| Supply Outlet Node, !- Fan Outlet Node Name
  CoilHeatingDXVariableSpeed_CCASHP Outlet Air Node; !- Setpoint Node or NodeList Name

Coil:Heating:Electric,
  CoilHeatingElectric,                    !- Name
  Always On Discrete,                     !- Availability Schedule Name
  1,                                      !- Efficiency
  Autosize,                               !- Nominal Capacity {W}
  CoilHeatingDXVariableSpeed_CCASHP Outlet Air Node, !- Air Inlet Node Name
  CoilHeatingElectric Outlet Air Node,    !- Air Outlet Node Name
  CoilHeatingElectric Outlet Air Node;    !- Temperature Setpoint Node Name

SetpointManager:MixedAir,
  CoilHeatingElectric Outlet Air Node OS Default SPM, !- Name
  Temperature,                            !- Control Variable
  sys_6|mixed|shr>erv|sc>ccashp|sh>ccashp|ssf>vv|zh>b-e|zc>none|srf>vv| Supply Outlet Node, !- Reference Setpoint Node Name
  CoilHeatingElectric Outlet Air Node,    !- Fan Inlet Node Name
  sys_6|mixed|shr>erv|sc>ccashp|sh>ccashp|ssf>vv|zh>b-e|zc>none|srf>vv| Supply Outlet Node, !- Fan Outlet Node Name
  CoilHeatingElectric Outlet Air Node;    !- Setpoint Node or NodeList Name

Fan:VariableVolume,
  Supply Fan,                             !- Name
  sys_6|mixed|shr>none|sc>ccashp|sh>ccashp|ssf>vv|zh>b-e|zc>none|srf>vv| Occ Sch, !- Availability Schedule Name
  0.549965,                               !- Fan Total Efficiency
  1000,                                   !- Pressure Rise {Pa}
  AutoSize,                               !- Maximum Flow Rate {m3/s}
  Fraction,                               !- Fan Power Minimum Flow Rate Input Method
  0.68,                                   !- Fan Power Minimum Flow Fraction
  0,                                      !- Fan Power Minimum Air Flow Rate {m3/s}
  0.8461,                                 !- Motor Efficiency
  1,                                      !- Motor In Airstream Fraction
  -2.4176,                                !- Fan Power Coefficient 1
  9.5874,                                 !- Fan Power Coefficient 2
  -11.559,                                !- Fan Power Coefficient 3
  5.4009,                                 !- Fan Power Coefficient 4
  0,                                      !- Fan Power Coefficient 5
  CoilHeatingElectric Outlet Air Node,    !- Air Inlet Node Name
  sys_6|mixed|shr>erv|sc>ccashp|sh>ccashp|ssf>vv|zh>b-e|zc>none|srf>vv| Supply Outlet Node, !- Air Outlet Node Name
  General;                                !- End-Use Subcategory

SetpointManager:Warmest,
  Setpoint Manager Warmest 1,             !- Name
  Temperature,                            !- Control Variable
  sys_6|mixed|shr>erv|sc>ccashp|sh>ccashp|ssf>vv|zh>b-e|zc>none|srf>vv|, !- HVAC Air Loop Name
  13,                                     !- Minimum Setpoint Temperature {C}
  22,                                     !- Maximum Setpoint Temperature {C}
  MaximumTemperature,                     !- Strategy
  sys_6|mixed|shr>erv|sc>ccashp|sh>ccashp|ssf>vv|zh>b-e|zc>none|srf>vv| Supply Outlet Node; !- Setpoint Node or NodeList Name

AirLoopHVAC:SupplyPath,
  sys_6|mixed|shr>erv|sc>ccashp|sh>ccashp|ssf>vv|zh>b-e|zc>none|srf>vv| sys_6|mixed|shr>erv|sc>ccashp|sh>ccashp|ssf>vv|zh>b-e|zc>none|srf>vv| Demand Inlet Node Supply Path, !- Name
  sys_6|mixed|shr>erv|sc>ccashp|sh>ccashp|ssf>vv|zh>b-e|zc>none|srf>vv| Demand Inlet Node, !- Supply Air Path Inlet Node Name
  AirLoopHVAC:ZoneSplitter,               !- Component Object Type 1
  Air Loop HVAC Zone Splitter 1;          !- Component Name 1

AirLoopHVAC:ZoneSplitter,
  Air Loop HVAC Zone Splitter 1,          !- Name
  sys_6|mixed|shr>erv|sc>ccashp|sh>ccashp|ssf>vv|zh>b-e|zc>none|srf>vv| Demand Inlet Node, !- Inlet Node Name
  Air Terminal Single Duct VAV Reheat 1 Inlet Air Node, !- Outlet Node Name 1
  Air Terminal Single Duct VAV Reheat 2 Inlet Air Node, !- Outlet Node Name 2
  Air Terminal Single Duct VAV Reheat 3 Inlet Air Node, !- Outlet Node Name 3
  Air Terminal Single Duct VAV Reheat 4 Inlet Air Node, !- Outlet Node Name 4
  Air Terminal Single Duct VAV Reheat 5 Inlet Air Node; !- Outlet Node Name 5

AirLoopHVAC:ReturnPath,
  sys_6|mixed|shr>erv|sc>ccashp|sh>ccashp|ssf>vv|zh>b-e|zc>none|srf>vv| Return Path, !- Name
  sys_6|mixed|shr>erv|sc>ccashp|sh>ccashp|ssf>vv|zh>b-e|zc>none|srf>vv| Demand Outlet Node, !- Return Air Path Outlet Node Name
  AirLoopHVAC:ZoneMixer,                  !- Component Object Type 1
  Air Loop HVAC Zone Mixer 1;             !- Component Name 1

AirLoopHVAC:ZoneMixer,
  Air Loop HVAC Zone Mixer 1,             !- Name
  sys_6|mixed|shr>erv|sc>ccashp|sh>ccashp|ssf>vv|zh>b-e|zc>none|srf>vv| Demand Outlet Node, !- Outlet Node Name
  ALL_ST=Office open plan_FL=Building Story 1_SCH=A Return Air Node, !- Inlet Node Name 1
  ALL_ST=Office open plan_FL=Building Story 1_SCH=A 1 Return Air Node, !- Inlet Node Name 2
  ALL_ST=Office open plan_FL=Building Story 1_SCH=A 2 Return Air Node, !- Inlet Node Name 3
  ALL_ST=Office open plan_FL=Building Story 1_SCH=A 3 Return Air Node, !- Inlet Node Name 4
  ALL_ST=Office open plan_FL=Building Story 1_SCH=A 4 Return Air Node; !- Inlet Node Name 5

AirLoopHVAC,
  sys_6|mixed|shr>erv|sc>ccashp|sh>ccashp|ssf>vv|zh>b-e|zc>none|srf>vv| 1, !- Name
  ,                                       !- Controller List Name
  Air Loop HVAC 1 AvailabilityManagerAssignmentList 1, !- Availability Manager List Name
  AutoSize,                               !- Design Supply Air Flow Rate {m3/s}
  sys_6|mixed|shr>erv|sc>ccashp|sh>ccashp|ssf>vv|zh>b-e|zc>none|srf>vv| 1 Supply Branches, !- Branch List Name
  ,                                       !- Connector List Name
  sys_6|mixed|shr>erv|sc>ccashp|sh>ccashp|ssf>vv|zh>b-e|zc>none|srf>vv| 1 Supply Inlet Node, !- Supply Side Inlet Node Name
  sys_6|mixed|shr>erv|sc>ccashp|sh>ccashp|ssf>vv|zh>b-e|zc>none|srf>vv| 1 Demand Outlet Node, !- Demand Side Outlet Node Name
  sys_6|mixed|shr>erv|sc>ccashp|sh>ccashp|ssf>vv|zh>b-e|zc>none|srf>vv| 1 Demand Inlet Nodes, !- Demand Side Inlet Node Names
  sys_6|mixed|shr>erv|sc>ccashp|sh>ccashp|ssf>vv|zh>b-e|zc>none|srf>vv| 1 Supply Outlet Nodes, !- Supply Side Outlet Node Names
  1;                                      !- Design Return Air Flow Fraction of Supply Air Flow

NodeList,
  sys_6|mixed|shr>erv|sc>ccashp|sh>ccashp|ssf>vv|zh>b-e|zc>none|srf>vv| 1 Supply Outlet Nodes, !- Name
  sys_6|mixed|shr>erv|sc>ccashp|sh>ccashp|ssf>vv|zh>b-e|zc>none|srf>vv| 1 Supply Outlet Node; !- Node Name 1

NodeList,
  sys_6|mixed|shr>erv|sc>ccashp|sh>ccashp|ssf>vv|zh>b-e|zc>none|srf>vv| 1 Demand Inlet Nodes, !- Name
  sys_6|mixed|shr>erv|sc>ccashp|sh>ccashp|ssf>vv|zh>b-e|zc>none|srf>vv| 1 Demand Inlet Node; !- Node Name 1

Sizing:System,
  sys_6|mixed|shr>erv|sc>ccashp|sh>ccashp|ssf>vv|zh>b-e|zc>none|srf>vv| 1, !- AirLoop Name
  Sensible,                               !- Type of Load to Size On
  Autosize,                               !- Design Outdoor Air Flow Rate {m3/s}
  1,                                      !- Central Heating Maximum System Air Flow Ratio
  7,                                      !- Preheat Design Temperature {C}
  0.008,                                  !- Preheat Design Humidity Ratio {kgWater/kgDryAir}
  13,                                     !- Precool Design Temperature {C}
  0.008,                                  !- Precool Design Humidity Ratio {kgWater/kgDryAir}
  13,                                     !- Central Cooling Design Supply Air Temperature {C}
  43,                                     !- Central Heating Design Supply Air Temperature {C}
  NonCoincident,                          !- Type of Zone Sum to Use
  No,                                     !- 100% Outdoor Air in Cooling
  No,                                     !- 100% Outdoor Air in Heating
  0.0085,                                 !- Central Cooling Design Supply Air Humidity Ratio {kgWater/kgDryAir}
  0.008,                                  !- Central Heating Design Supply Air Humidity Ratio {kgWater/kgDryAir}
  DesignDay,                              !- Cooling Supply Air Flow Rate Method
  0,                                      !- Cooling Supply Air Flow Rate {m3/s}
  0.0099676501,                           !- Cooling Supply Air Flow Rate Per Floor Area {m3/s-m2}
  1,                                      !- Cooling Fraction of Autosized Cooling Supply Air Flow Rate
  3.9475456e-05,                          !- Cooling Supply Air Flow Rate Per Unit Cooling Capacity {m3/s-W}
  DesignDay,                              !- Heating Supply Air Flow Rate Method
  0,                                      !- Heating Supply Air Flow Rate {m3/s}
  0.0099676501,                           !- Heating Supply Air Flow Rate Per Floor Area {m3/s-m2}
  1,                                      !- Heating Fraction of Autosized Heating Supply Air Flow Rate
  1,                                      !- Heating Fraction of Autosized Cooling Supply Air Flow Rate
  3.1588213e-05,                          !- Heating Supply Air Flow Rate Per Unit Heating Capacity {m3/s-W}
  ZoneSum,                                !- System Outdoor Air Method
  1,                                      !- Zone Maximum Outdoor Air Fraction {dimensionless}
  CoolingDesignCapacity,                  !- Cooling Design Capacity Method
  Autosize,                               !- Cooling Design Capacity {W}
  234.7,                                  !- Cooling Design Capacity Per Floor Area {W/m2}
  1,                                      !- Fraction of Autosized Cooling Design Capacity
  HeatingDesignCapacity,                  !- Heating Design Capacity Method
  Autosize,                               !- Heating Design Capacity {W}
  157,                                    !- Heating Design Capacity Per Floor Area {W/m2}
  1,                                      !- Fraction of Autosized Heating Design Capacity
  OnOff,                                  !- Central Cooling Capacity Control Method
  Autosize;                               !- Occupant Diversity

AvailabilityManagerAssignmentList,
  Air Loop HVAC 1 AvailabilityManagerAssignmentList 1, !- Name
  AvailabilityManager:NightCycle,         !- Availability Manager Object Type 1
  Availability Manager Night Cycle 2;     !- Availability Manager Name 1

AvailabilityManager:NightCycle,
  Availability Manager Night Cycle 2,     !- Name
  Always On Discrete,                     !- Applicability Schedule Name
  sys_6|mixed|shr>none|sc>ccashp|sh>ccashp|ssf>vv|zh>b-e|zc>none|srf>vv| 1 Occ Sch, !- Fan Schedule Name
  CycleOnAny,                             !- Control Type
  1,                                      !- Thermostat Tolerance {deltaC}
  FixedRunTime,                           !- Cycling Run Time Control Type
  3600;                                   !- Cycling Run Time {s}

BranchList,
  sys_6|mixed|shr>erv|sc>ccashp|sh>ccashp|ssf>vv|zh>b-e|zc>none|srf>vv| 1 Supply Branches, !- Name
  sys_6|mixed|shr>erv|sc>ccashp|sh>ccashp|ssf>vv|zh>b-e|zc>none|srf>vv| 1 Main Branch; !- Branch Name 1

Branch,
  sys_6|mixed|shr>erv|sc>ccashp|sh>ccashp|ssf>vv|zh>b-e|zc>none|srf>vv| 1 Main Branch, !- Name
  ,                                       !- Pressure Drop Curve Name
  Fan:VariableVolume,                     !- Component Object Type 1
  Return Fan 1,                           !- Component Name 1
  sys_6|mixed|shr>erv|sc>ccashp|sh>ccashp|ssf>vv|zh>b-e|zc>none|srf>vv| 1 Supply Inlet Node, !- Component Inlet Node Name 1
  Return Fan 1 Outlet Air Node,           !- Component Outlet Node Name 1
  AirLoopHVAC:OutdoorAirSystem,           !- Component Object Type 2
  Air Loop HVAC Outdoor Air System 2,     !- Component Name 2
  Return Fan 1 Outlet Air Node,           !- Component Inlet Node Name 2
  sys_6|mixed|shr>erv|sc>ccashp|sh>ccashp|ssf>vv|zh>b-e|zc>none|srf>vv| 1 Mixed Air Node, !- Component Outlet Node Name 2
  CoilSystem:Cooling:DX,                  !- Component Object Type 3
  CoilCoolingDXVariableSpeed_CCASHP 1 CoilSystem, !- Component Name 3
  sys_6|mixed|shr>erv|sc>ccashp|sh>ccashp|ssf>vv|zh>b-e|zc>none|srf>vv| 1 Mixed Air Node, !- Component Inlet Node Name 3
  CoilCoolingDXVariableSpeed_CCASHP 1 Outlet Air Node, !- Component Outlet Node Name 3
  CoilSystem:Heating:DX,                  !- Component Object Type 4
  CoilHeatingDXVariableSpeed_CCASHP 1 CoilSystem, !- Component Name 4
  CoilCoolingDXVariableSpeed_CCASHP 1 Outlet Air Node, !- Component Inlet Node Name 4
  CoilHeatingDXVariableSpeed_CCASHP 1 Outlet Air Node, !- Component Outlet Node Name 4
  Coil:Heating:Electric,                  !- Component Object Type 5
  CoilHeatingElectric 1,                  !- Component Name 5
  CoilHeatingDXVariableSpeed_CCASHP 1 Outlet Air Node, !- Component Inlet Node Name 5
  CoilHeatingElectric 1 Outlet Air Node,  !- Component Outlet Node Name 5
  Fan:VariableVolume,                     !- Component Object Type 6
  Supply Fan 1,                           !- Component Name 6
  CoilHeatingElectric 1 Outlet Air Node,  !- Component Inlet Node Name 6
  sys_6|mixed|shr>erv|sc>ccashp|sh>ccashp|ssf>vv|zh>b-e|zc>none|srf>vv| 1 Supply Outlet Node; !- Component Outlet Node Name 6

Fan:VariableVolume,
  Return Fan 1,                           !- Name
  sys_6|mixed|shr>none|sc>ccashp|sh>ccashp|ssf>vv|zh>b-e|zc>none|srf>vv| 1 Occ Sch, !- Availability Schedule Name
  0.299975,                               !- Fan Total Efficiency
  250,                                    !- Pressure Rise {Pa}
  AutoSize,                               !- Maximum Flow Rate {m3/s}
  Fraction,                               !- Fan Power Minimum Flow Rate Input Method
  0.68,                                   !- Fan Power Minimum Flow Fraction
  0,                                      !- Fan Power Minimum Air Flow Rate {m3/s}
  0.4615,                                 !- Motor Efficiency
  1,                                      !- Motor In Airstream Fraction
  -2.4176,                                !- Fan Power Coefficient 1
  9.5874,                                 !- Fan Power Coefficient 2
  -11.559,                                !- Fan Power Coefficient 3
  5.4009,                                 !- Fan Power Coefficient 4
  0,                                      !- Fan Power Coefficient 5
  sys_6|mixed|shr>erv|sc>ccashp|sh>ccashp|ssf>vv|zh>b-e|zc>none|srf>vv| 1 Supply Inlet Node, !- Air Inlet Node Name
  Return Fan 1 Outlet Air Node,           !- Air Outlet Node Name
  General;                                !- End-Use Subcategory

SetpointManager:MixedAir,
  Return Fan 1 Outlet Air Node OS Default SPM, !- Name
  Temperature,                            !- Control Variable
  sys_6|mixed|shr>erv|sc>ccashp|sh>ccashp|ssf>vv|zh>b-e|zc>none|srf>vv| 1 Supply Outlet Node, !- Reference Setpoint Node Name
  CoilHeatingElectric 1 Outlet Air Node,  !- Fan Inlet Node Name
  sys_6|mixed|shr>erv|sc>ccashp|sh>ccashp|ssf>vv|zh>b-e|zc>none|srf>vv| 1 Supply Outlet Node, !- Fan Outlet Node Name
  Return Fan 1 Outlet Air Node;           !- Setpoint Node or NodeList Name

AirLoopHVAC:OutdoorAirSystem,
  Air Loop HVAC Outdoor Air System 2,     !- Name
  Air Loop HVAC Outdoor Air System 2 Controller List, !- Controller List Name
  Air Loop HVAC Outdoor Air System 2 Equipment List; !- Outdoor Air Equipment List Name

AirLoopHVAC:ControllerList,
  Air Loop HVAC Outdoor Air System 2 Controller List, !- Name
  Controller:OutdoorAir,                  !- Controller Object Type 1
  Controller Outdoor Air 2;               !- Controller Name 1

Controller:OutdoorAir,
  Controller Outdoor Air 2,               !- Name
  sys_6|mixed|shr>none|sc>ccashp|sh>ccashp|ssf>vv|zh>b-e|zc>none|srf>vv| 1 ERV Secondary Inlet Air Node, !- Relief Air Outlet Node Name
  Return Fan 1 Outlet Air Node,           !- Return Air Node Name
  sys_6|mixed|shr>erv|sc>ccashp|sh>ccashp|ssf>vv|zh>b-e|zc>none|srf>vv| 1 Mixed Air Node, !- Mixed Air Node Name
  sys_6|mixed|shr>erv|sc>ccashp|sh>ccashp|ssf>vv|zh>b-e|zc>none|srf>vv| 1 Outdoor Air Node, !- Actuator Node Name
  Autosize,                               !- Minimum Outdoor Air Flow Rate {m3/s}
  Autosize,                               !- Maximum Outdoor Air Flow Rate {m3/s}
  DifferentialEnthalpy,                   !- Economizer Control Type
  ModulateFlow,                           !- Economizer Control Action Type
  ,                                       !- Economizer Maximum Limit Dry-Bulb Temperature {C}
  ,                                       !- Economizer Maximum Limit Enthalpy {J/kg}
  ,                                       !- Economizer Maximum Limit Dewpoint Temperature {C}
  ,                                       !- Electronic Enthalpy Limit Curve Name
  ,                                       !- Economizer Minimum Limit Dry-Bulb Temperature {C}
  NoLockout,                              !- Lockout Type
  FixedMinimum,                           !- Minimum Limit Type
  sys_6|mixed|shr>none|sc>ccashp|sh>ccashp|ssf>vv|zh>b-e|zc>none|srf>vv| 1 Occ Sch, !- Minimum Outdoor Air Schedule Name
  ,                                       !- Minimum Fraction of Outdoor Air Schedule Name
  ,                                       !- Maximum Fraction of Outdoor Air Schedule Name
  Controller Mechanical Ventilation 2,    !- Mechanical Ventilation Controller Name
  ,                                       !- Time of Day Economizer Control Schedule Name
  No,                                     !- High Humidity Control
  ,                                       !- Humidistat Control Zone Name
  1,                                      !- High Humidity Outdoor Air Flow Ratio
  Yes,                                    !- Control High Indoor Humidity Based on Outdoor Humidity Ratio
  BypassWhenOAFlowGreaterThanMinimum,     !- Heat Recovery Bypass Control Type
  InterlockedWithMechanicalCooling;       !- Economizer Operation Staging

OutdoorAir:NodeList,
  sys_6|mixed|shr>erv|sc>ccashp|sh>ccashp|ssf>vv|zh>b-e|zc>none|srf>vv| 1 Outdoor Air Node; !- Node or NodeList Name 1

AirLoopHVAC:OutdoorAirSystem:EquipmentList,
  Air Loop HVAC Outdoor Air System 2 Equipment List, !- Name
  OutdoorAir:Mixer,                       !- Component Object Type 1
  Air Loop HVAC Outdoor Air System 2 Outdoor Air Mixer, !- Component Name 1
  HeatExchanger:AirToAir:SensibleAndLatent, !- Component Object Type 2
  sys_6|mixed|shr>none|sc>ccashp|sh>ccashp|ssf>vv|zh>b-e|zc>none|srf>vv| 1 ERV; !- Component Name 2

OutdoorAir:Mixer,
  Air Loop HVAC Outdoor Air System 2 Outdoor Air Mixer, !- Name
  sys_6|mixed|shr>erv|sc>ccashp|sh>ccashp|ssf>vv|zh>b-e|zc>none|srf>vv| 1 Mixed Air Node, !- Mixed Air Node Name
  sys_6|mixed|shr>none|sc>ccashp|sh>ccashp|ssf>vv|zh>b-e|zc>none|srf>vv| 1 ERV Primary Outlet Air Node, !- Outdoor Air Stream Node Name
  sys_6|mixed|shr>none|sc>ccashp|sh>ccashp|ssf>vv|zh>b-e|zc>none|srf>vv| 1 ERV Secondary Inlet Air Node, !- Relief Air Stream Node Name
  Return Fan 1 Outlet Air Node;           !- Return Air Stream Node Name

HeatExchanger:AirToAir:SensibleAndLatent,
  sys_6|mixed|shr>none|sc>ccashp|sh>ccashp|ssf>vv|zh>b-e|zc>none|srf>vv| 1 ERV, !- Name
  Always On Discrete,                     !- Availability Schedule Name
  Autosize,                               !- Nominal Supply Air Flow Rate {m3/s}
  0.5,                                    !- Sensible Effectiveness at 100% Heating Air Flow {dimensionless}
  0.5,                                    !- Latent Effectiveness at 100% Heating Air Flow {dimensionless}
  0.5,                                    !- Sensible Effectiveness at 100% Cooling Air Flow {dimensionless}
  0.5,                                    !- Latent Effectiveness at 100% Cooling Air Flow {dimensionless}
  sys_6|mixed|shr>erv|sc>ccashp|sh>ccashp|ssf>vv|zh>b-e|zc>none|srf>vv| 1 Outdoor Air Node, !- Supply Air Inlet Node Name
  sys_6|mixed|shr>none|sc>ccashp|sh>ccashp|ssf>vv|zh>b-e|zc>none|srf>vv| 1 ERV Primary Outlet Air Node, !- Supply Air Outlet Node Name
  sys_6|mixed|shr>none|sc>ccashp|sh>ccashp|ssf>vv|zh>b-e|zc>none|srf>vv| 1 ERV Secondary Inlet Air Node, !- Exhaust Air Inlet Node Name
  sys_6|mixed|shr>erv|sc>ccashp|sh>ccashp|ssf>vv|zh>b-e|zc>none|srf>vv| 1 Relief Air Node, !- Exhaust Air Outlet Node Name
  564.521132154065,                       !- Nominal Electric Power {W}
  Yes,                                    !- Supply Air Outlet Temperature Control
  Rotary,                                 !- Heat Exchanger Type
  ExhaustOnly,                            !- Frost Control Type
  -23.3,                                  !- Threshold Temperature {C}
  0.167,                                  !- Initial Defrost Time Fraction {dimensionless}
  1.44,                                   !- Rate of Defrost Time Fraction Increase {1/K}
  Yes,                                    !- Economizer Lockout
  sys_6|mixed|shr>none|sc>ccashp|sh>ccashp|ssf>vv|zh>b-e|zc>none|srf>vv| 1 ERV_SensHeatEff 1, !- Sensible Effectiveness of Heating Air Flow Curve Name
  sys_6|mixed|shr>none|sc>ccashp|sh>ccashp|ssf>vv|zh>b-e|zc>none|srf>vv| 1 ERV_LatHeatEff 1, !- Latent Effectiveness of Heating Air Flow Curve Name
  sys_6|mixed|shr>none|sc>ccashp|sh>ccashp|ssf>vv|zh>b-e|zc>none|srf>vv| 1 ERV_SensCoolEff 1, !- Sensible Effectiveness of Cooling Air Flow Curve Name
  sys_6|mixed|shr>none|sc>ccashp|sh>ccashp|ssf>vv|zh>b-e|zc>none|srf>vv| 1 ERV_LatCoolEff 1; !- Latent Effectiveness of Cooling Air Flow Curve Name

Table:Lookup,
  sys_6|mixed|shr>none|sc>ccashp|sh>ccashp|ssf>vv|zh>b-e|zc>none|srf>vv| 1 ERV_SensHeatEff 1, !- Name
  sys_6|mixed|shr>none|sc>ccashp|sh>ccashp|ssf>vv|zh>b-e|zc>none|srf>vv| 1 ERV_SensHeatEff 1 Independent Variable List, !- Independent Variable List Name
  DivisorOnly,                            !- Normalization Method
  0.5,                                    !- Normalization Divisor
  0,                                      !- Minimum Output {BasedOnField A4}
  10,                                     !- Maximum Output {BasedOnField A4}
  Dimensionless,                          !- Output Unit Type
  ,                                       !- External File Name
  ,                                       !- External File Column Number
  ,                                       !- External File Starting Row Number
  0.5,                                    !- Output Value 1 {BasedOnField A4}
  0.5;                                    !- Output Value 2 {BasedOnField A4}

Table:IndependentVariableList,
  sys_6|mixed|shr>none|sc>ccashp|sh>ccashp|ssf>vv|zh>b-e|zc>none|srf>vv| 1 ERV_SensHeatEff 1 Independent Variable List, !- Name
  sys_6|mixed|shr>none|sc>ccashp|sh>ccashp|ssf>vv|zh>b-e|zc>none|srf>vv| 1 ERV_SensibleHeating_IndependentVariable; !- Independent Variable Name 1

Table:IndependentVariable,
  sys_6|mixed|shr>none|sc>ccashp|sh>ccashp|ssf>vv|zh>b-e|zc>none|srf>vv| 1 ERV_SensibleHeating_IndependentVariable, !- Name
  Linear,                                 !- Interpolation Method
  Linear,                                 !- Extrapolation Method
  0,                                      !- Minimum Value {BasedOnField A4}
  10,                                     !- Maximum Value {BasedOnField A4}
  ,                                       !- Normalization Reference Value {BasedOnField A4}
  Dimensionless,                          !- Unit Type
  ,                                       !- External File Name
  ,                                       !- External File Column Number
  ,                                       !- External File Starting Row Number
  0.75,                                   !- Value 1
  1;                                      !- Value 2

Table:Lookup,
  sys_6|mixed|shr>none|sc>ccashp|sh>ccashp|ssf>vv|zh>b-e|zc>none|srf>vv| 1 ERV_LatHeatEff 1, !- Name
  sys_6|mixed|shr>none|sc>ccashp|sh>ccashp|ssf>vv|zh>b-e|zc>none|srf>vv| 1 ERV_LatHeatEff 1 Independent Variable List, !- Independent Variable List Name
  DivisorOnly,                            !- Normalization Method
  0.5,                                    !- Normalization Divisor
  0,                                      !- Minimum Output {BasedOnField A4}
  10,                                     !- Maximum Output {BasedOnField A4}
  Dimensionless,                          !- Output Unit Type
  ,                                       !- External File Name
  ,                                       !- External File Column Number
  ,                                       !- External File Starting Row Number
  0.5,                                    !- Output Value 1 {BasedOnField A4}
  0.5;                                    !- Output Value 2 {BasedOnField A4}

Table:IndependentVariableList,
  sys_6|mixed|shr>none|sc>ccashp|sh>ccashp|ssf>vv|zh>b-e|zc>none|srf>vv| 1 ERV_LatHeatEff 1 Independent Variable List, !- Name
  sys_6|mixed|shr>none|sc>ccashp|sh>ccashp|ssf>vv|zh>b-e|zc>none|srf>vv| 1 ERV_LatentHeating_IndependentVariable; !- Independent Variable Name 1

Table:IndependentVariable,
  sys_6|mixed|shr>none|sc>ccashp|sh>ccashp|ssf>vv|zh>b-e|zc>none|srf>vv| 1 ERV_LatentHeating_IndependentVariable, !- Name
  Linear,                                 !- Interpolation Method
  Linear,                                 !- Extrapolation Method
  0,                                      !- Minimum Value {BasedOnField A4}
  10,                                     !- Maximum Value {BasedOnField A4}
  ,                                       !- Normalization Reference Value {BasedOnField A4}
  Dimensionless,                          !- Unit Type
  ,                                       !- External File Name
  ,                                       !- External File Column Number
  ,                                       !- External File Starting Row Number
  0.75,                                   !- Value 1
  1;                                      !- Value 2

Table:Lookup,
  sys_6|mixed|shr>none|sc>ccashp|sh>ccashp|ssf>vv|zh>b-e|zc>none|srf>vv| 1 ERV_SensCoolEff 1, !- Name
  sys_6|mixed|shr>none|sc>ccashp|sh>ccashp|ssf>vv|zh>b-e|zc>none|srf>vv| 1 ERV_SensCoolEff 1 Independent Variable List, !- Independent Variable List Name
  DivisorOnly,                            !- Normalization Method
  0.5,                                    !- Normalization Divisor
  0,                                      !- Minimum Output {BasedOnField A4}
  10,                                     !- Maximum Output {BasedOnField A4}
  Dimensionless,                          !- Output Unit Type
  ,                                       !- External File Name
  ,                                       !- External File Column Number
  ,                                       !- External File Starting Row Number
  0.5,                                    !- Output Value 1 {BasedOnField A4}
  0.5;                                    !- Output Value 2 {BasedOnField A4}

Table:IndependentVariableList,
  sys_6|mixed|shr>none|sc>ccashp|sh>ccashp|ssf>vv|zh>b-e|zc>none|srf>vv| 1 ERV_SensCoolEff 1 Independent Variable List, !- Name
  sys_6|mixed|shr>none|sc>ccashp|sh>ccashp|ssf>vv|zh>b-e|zc>none|srf>vv| 1 ERV_SensibleCooling_IndependentVariable; !- Independent Variable Name 1

Table:IndependentVariable,
  sys_6|mixed|shr>none|sc>ccashp|sh>ccashp|ssf>vv|zh>b-e|zc>none|srf>vv| 1 ERV_SensibleCooling_IndependentVariable, !- Name
  Linear,                                 !- Interpolation Method
  Linear,                                 !- Extrapolation Method
  0,                                      !- Minimum Value {BasedOnField A4}
  10,                                     !- Maximum Value {BasedOnField A4}
  ,                                       !- Normalization Reference Value {BasedOnField A4}
  Dimensionless,                          !- Unit Type
  ,                                       !- External File Name
  ,                                       !- External File Column Number
  ,                                       !- External File Starting Row Number
  0.75,                                   !- Value 1
  1;                                      !- Value 2

Table:Lookup,
  sys_6|mixed|shr>none|sc>ccashp|sh>ccashp|ssf>vv|zh>b-e|zc>none|srf>vv| 1 ERV_LatCoolEff 1, !- Name
  sys_6|mixed|shr>none|sc>ccashp|sh>ccashp|ssf>vv|zh>b-e|zc>none|srf>vv| 1 ERV_LatCoolEff 1 Independent Variable List, !- Independent Variable List Name
  DivisorOnly,                            !- Normalization Method
  0.5,                                    !- Normalization Divisor
  0,                                      !- Minimum Output {BasedOnField A4}
  10,                                     !- Maximum Output {BasedOnField A4}
  Dimensionless,                          !- Output Unit Type
  ,                                       !- External File Name
  ,                                       !- External File Column Number
  ,                                       !- External File Starting Row Number
  0.5,                                    !- Output Value 1 {BasedOnField A4}
  0.5;                                    !- Output Value 2 {BasedOnField A4}

Table:IndependentVariableList,
  sys_6|mixed|shr>none|sc>ccashp|sh>ccashp|ssf>vv|zh>b-e|zc>none|srf>vv| 1 ERV_LatCoolEff 1 Independent Variable List, !- Name
  sys_6|mixed|shr>none|sc>ccashp|sh>ccashp|ssf>vv|zh>b-e|zc>none|srf>vv| 1 ERV_LatentCooling_IndependentVariable; !- Independent Variable Name 1

Table:IndependentVariable,
  sys_6|mixed|shr>none|sc>ccashp|sh>ccashp|ssf>vv|zh>b-e|zc>none|srf>vv| 1 ERV_LatentCooling_IndependentVariable, !- Name
  Linear,                                 !- Interpolation Method
  Linear,                                 !- Extrapolation Method
  0,                                      !- Minimum Value {BasedOnField A4}
  10,                                     !- Maximum Value {BasedOnField A4}
  ,                                       !- Normalization Reference Value {BasedOnField A4}
  Dimensionless,                          !- Unit Type
  ,                                       !- External File Name
  ,                                       !- External File Column Number
  ,                                       !- External File Starting Row Number
  0.75,                                   !- Value 1
  1;                                      !- Value 2

SetpointManager:OutdoorAirPretreat,
  Setpoint Manager Outdoor Air Pretreat 2, !- Name
  Temperature,                            !- Control Variable
  -99,                                    !- Minimum Setpoint Temperature {C}
  99,                                     !- Maximum Setpoint Temperature {C}
  1e-05,                                  !- Minimum Setpoint Humidity Ratio {kgWater/kgDryAir}
  1,                                      !- Maximum Setpoint Humidity Ratio {kgWater/kgDryAir}
  sys_6|mixed|shr>erv|sc>ccashp|sh>ccashp|ssf>vv|zh>b-e|zc>none|srf>vv| 1 Mixed Air Node, !- Reference Setpoint Node Name
  sys_6|mixed|shr>erv|sc>ccashp|sh>ccashp|ssf>vv|zh>b-e|zc>none|srf>vv| 1 Mixed Air Node, !- Mixed Air Stream Node Name
  sys_6|mixed|shr>erv|sc>ccashp|sh>ccashp|ssf>vv|zh>b-e|zc>none|srf>vv| 1 Outdoor Air Node, !- Outdoor Air Stream Node Name
  Return Fan 1 Outlet Air Node,           !- Return Air Stream Node Name
  sys_6|mixed|shr>none|sc>ccashp|sh>ccashp|ssf>vv|zh>b-e|zc>none|srf>vv| 1 ERV Primary Outlet Air Node; !- Setpoint Node or NodeList Name

SetpointManager:MixedAir,
  sys_6|mixed|shr>erv|sc>ccashp|sh>ccashp|ssf>vv|zh>b-e|zc>none|srf>vv| 1 Mixed Air Node OS Default SPM, !- Name
  Temperature,                            !- Control Variable
  sys_6|mixed|shr>erv|sc>ccashp|sh>ccashp|ssf>vv|zh>b-e|zc>none|srf>vv| 1 Supply Outlet Node, !- Reference Setpoint Node Name
  CoilHeatingElectric 1 Outlet Air Node,  !- Fan Inlet Node Name
  sys_6|mixed|shr>erv|sc>ccashp|sh>ccashp|ssf>vv|zh>b-e|zc>none|srf>vv| 1 Supply Outlet Node, !- Fan Outlet Node Name
  sys_6|mixed|shr>erv|sc>ccashp|sh>ccashp|ssf>vv|zh>b-e|zc>none|srf>vv| 1 Mixed Air Node; !- Setpoint Node or NodeList Name

CoilSystem:Cooling:DX,
  CoilCoolingDXVariableSpeed_CCASHP 1 CoilSystem, !- Name
  ,                                       !- Availability Schedule Name
  sys_6|mixed|shr>erv|sc>ccashp|sh>ccashp|ssf>vv|zh>b-e|zc>none|srf>vv| 1 Mixed Air Node, !- DX Cooling Coil System Inlet Node Name
  CoilCoolingDXVariableSpeed_CCASHP 1 Outlet Air Node, !- DX Cooling Coil System Outlet Node Name
  CoilCoolingDXVariableSpeed_CCASHP 1 Outlet Air Node, !- DX Cooling Coil System Sensor Node Name
  Coil:Cooling:DX:VariableSpeed,          !- Cooling Coil Object Type
  CoilCoolingDXVariableSpeed_CCASHP 1;    !- Cooling Coil Name

Coil:Cooling:DX:VariableSpeed,
  CoilCoolingDXVariableSpeed_CCASHP 1,    !- Name
  sys_6|mixed|shr>erv|sc>ccashp|sh>ccashp|ssf>vv|zh>b-e|zc>none|srf>vv| 1 Mixed Air Node, !- Indoor Air Inlet Node Name
  CoilCoolingDXVariableSpeed_CCASHP 1 Outlet Air Node, !- Indoor Air Outlet Node Name
  1,                                      !- Number of Speeds {dimensionless}
  1,                                      !- Nominal Speed Level {dimensionless}
  83913.203125,                           !- Gross Rated Total Cooling Capacity At Selected Nominal Speed Level {W}
  AutoSize,                               !- Rated Air Flow Rate At Selected Nominal Speed Level {m3/s}
  0,                                      !- Nominal Time for Condensate to Begin Leaving the Coil {s}
  0,                                      !- Initial Moisture Evaporation Rate Divided by Steady-State AC Latent Capacity {dimensionless}
  2.5,                                    !- Maximum Cycling Rate {cycles/hr}
  60,                                     !- Latent Capacity Time Constant {s}
  60,                                     !- Fan Delay Time {s}
  Mitsubishi Hyper Heating VRF Outdoor Unit CPLFFPLR curve, !- Energy Part Load Fraction Curve Name
  ,                                       !- Condenser Air Inlet Node Name
  AirCooled,                              !- Condenser Type
  0,                                      !- Evaporative Condenser Pump Rated Power Consumption {W}
  1e-06,                                  !- Crankcase Heater Capacity {W}
  ,                                       !- Crankcase Heater Capacity Function of Temperature Curve Name
  10,                                     !- Maximum Outdoor Dry-Bulb Temperature for Crankcase Heater Operation {C}
  -25,                                    !- Minimum Outdoor Dry-Bulb Temperature for Compressor Operation {C}
  ,                                       !- Supply Water Storage Tank Name
  ,                                       !- Condensate Collection Water Storage Tank Name
  0,                                      !- Basin Heater Capacity {W/K}
  2,                                      !- Basin Heater Setpoint Temperature {C}
  ,                                       !- Basin Heater Operating Schedule Name
  8914.185229,                            !- Speed Reference Unit Gross Rated Total Cooling Capacity 1 {W}
  0.79,                                   !- Speed Reference Unit Gross Rated Sensible Heat Ratio 1 {dimensionless}
  3.76,                                   !- Speed Reference Unit Gross Rated Cooling COP 1 {W/W}
  0.944,                                  !- Speed Reference Unit Rated Air Flow Rate 1 {m3/s}
  773.3,                                  !- Speed Rated Evaporator Fan Power Per Volume Flow Rate 2017 1 {W/(m3/s)}
  934.4,                                  !- Speed Rated Evaporator Fan Power Per Volume Flow Rate 2023 1 {W/(m3/s)}
  ,                                       !- Speed Reference Unit Rated Condenser Air Flow Rate 1 {m3/s}
  ,                                       !- Speed Reference Unit Rated Pad Effectiveness of Evap Precooling 1 {dimensionless}
  Mitsubishi Hyper Heating VRF Outdoor Unit CCAPFT curve, !- Speed Total Cooling Capacity Function of Temperature Curve Name 1
  Mitsubishi Hyper Heating VRF Outdoor Unit CCAPFFF curve, !- Speed Total Cooling Capacity Function of Air Flow Fraction Curve Name 1
  Mitsubishi Hyper Heating VRF Outdoor Unit CEIRFT curve, !- Speed Energy Input Ratio Function of Temperature Curve Name 1
  Mitsubishi Hyper Heating VRF Outdoor Unit CEIRFFF curve; !- Speed Energy Input Ratio Function of Air Flow Fraction Curve Name 1

SetpointManager:MixedAir,
  CoilCoolingDXVariableSpeed_CCASHP 1 Outlet Air Node OS Default SPM, !- Name
  Temperature,                            !- Control Variable
  sys_6|mixed|shr>erv|sc>ccashp|sh>ccashp|ssf>vv|zh>b-e|zc>none|srf>vv| 1 Supply Outlet Node, !- Reference Setpoint Node Name
  CoilHeatingElectric 1 Outlet Air Node,  !- Fan Inlet Node Name
  sys_6|mixed|shr>erv|sc>ccashp|sh>ccashp|ssf>vv|zh>b-e|zc>none|srf>vv| 1 Supply Outlet Node, !- Fan Outlet Node Name
  CoilCoolingDXVariableSpeed_CCASHP 1 Outlet Air Node; !- Setpoint Node or NodeList Name

CoilSystem:Heating:DX,
  CoilHeatingDXVariableSpeed_CCASHP 1 CoilSystem, !- Name
  ,                                       !- Availability Schedule Name
  Coil:Heating:DX:VariableSpeed,          !- Heating Coil Object Type
  CoilHeatingDXVariableSpeed_CCASHP 1;    !- Heating Coil Name

Coil:Heating:DX:VariableSpeed,
  CoilHeatingDXVariableSpeed_CCASHP 1,    !- Name
  CoilCoolingDXVariableSpeed_CCASHP 1 Outlet Air Node, !- Indoor Air Inlet Node Name
  CoilHeatingDXVariableSpeed_CCASHP 1 Outlet Air Node, !- Indoor Air Outlet Node Name
  1,                                      !- Number of Speeds {dimensionless}
  1,                                      !- Nominal Speed Level {dimensionless}
  83913.203125,                           !- Rated Heating Capacity At Selected Nominal Speed Level {W}
  AutoSize,                               !- Rated Air Flow Rate At Selected Nominal Speed Level {m3/s}
  Mitsubishi Hyper Heating VRF Outdoor Unit HPLFFPLR curve, !- Energy Part Load Fraction Curve Name
  Mitsubishi Hyper Heating VRF Outdoor Unit Defrost HEIRFT curve, !- Defrost Energy Input Ratio Function of Temperature Curve Name
  -25,                                    !- Minimum Outdoor Dry-Bulb Temperature for Compressor Operation {C}
  ,                                       !- Outdoor Dry-Bulb Temperature to Turn On Compressor {C}
  5,                                      !- Maximum Outdoor Dry-Bulb Temperature for Defrost Operation {C}
  1e-06,                                  !- Crankcase Heater Capacity {W}
  ,                                       !- Crankcase Heater Capacity Function of Temperature Curve Name
  10,                                     !- Maximum Outdoor Dry-Bulb Temperature for Crankcase Heater Operation {C}
  ReverseCycle,                           !- Defrost Strategy
  OnDemand,                               !- Defrost Control
  0.166667,                               !- Defrost Time Period Fraction
  AutoSize,                               !- Resistive Defrost Heater Capacity {W}
  9124.853458,                            !- Speed Reference Unit Gross Rated Heating Capacity 1 {W}
  4.28497854098456,                       !- Speed Reference Unit Gross Rated Heating COP 1 {W/W}
  0.653,                                  !- Speed Reference Unit Rated Air Flow Rate 1 {m3/s}
  773.3,                                  !- Speed Rated Supply Air Fan Power Per Volume Flow Rate 2017 1 {W/(m3/s)}
  934.4,                                  !- Speed Rated Supply Air Fan Power Per Volume Flow Rate 2023 1 {W/(m3/s)}
  Mitsubishi Hyper Heating VRF Outdoor Unit HCAPFT curve, !- Speed Heating Capacity Function of Temperature Curve Name 1
  Mitsubishi Hyper Heating VRF Outdoor Unit HCAPFFF curve, !- Speed Total  Heating Capacity Function of Air Flow Fraction Curve Name 1
  Mitsubishi Hyper Heating VRF Outdoor Unit HEIRFT curve, !- Speed Energy Input Ratio Function of Temperature Curve Name 1
  Mitsubishi Hyper Heating VRF Outdoor Unit HEIRFFF curve; !- Speed Energy Input Ratio Function of Air Flow Fraction Curve Name 1

SetpointManager:MixedAir,
  CoilHeatingDXVariableSpeed_CCASHP 1 Outlet Air Node OS Default SPM, !- Name
  Temperature,                            !- Control Variable
  sys_6|mixed|shr>erv|sc>ccashp|sh>ccashp|ssf>vv|zh>b-e|zc>none|srf>vv| 1 Supply Outlet Node, !- Reference Setpoint Node Name
  CoilHeatingElectric 1 Outlet Air Node,  !- Fan Inlet Node Name
  sys_6|mixed|shr>erv|sc>ccashp|sh>ccashp|ssf>vv|zh>b-e|zc>none|srf>vv| 1 Supply Outlet Node, !- Fan Outlet Node Name
  CoilHeatingDXVariableSpeed_CCASHP 1 Outlet Air Node; !- Setpoint Node or NodeList Name

Coil:Heating:Electric,
  CoilHeatingElectric 1,                  !- Name
  Always On Discrete,                     !- Availability Schedule Name
  1,                                      !- Efficiency
  Autosize,                               !- Nominal Capacity {W}
  CoilHeatingDXVariableSpeed_CCASHP 1 Outlet Air Node, !- Air Inlet Node Name
  CoilHeatingElectric 1 Outlet Air Node,  !- Air Outlet Node Name
  CoilHeatingElectric 1 Outlet Air Node;  !- Temperature Setpoint Node Name

SetpointManager:MixedAir,
  CoilHeatingElectric 1 Outlet Air Node OS Default SPM, !- Name
  Temperature,                            !- Control Variable
  sys_6|mixed|shr>erv|sc>ccashp|sh>ccashp|ssf>vv|zh>b-e|zc>none|srf>vv| 1 Supply Outlet Node, !- Reference Setpoint Node Name
  CoilHeatingElectric 1 Outlet Air Node,  !- Fan Inlet Node Name
  sys_6|mixed|shr>erv|sc>ccashp|sh>ccashp|ssf>vv|zh>b-e|zc>none|srf>vv| 1 Supply Outlet Node, !- Fan Outlet Node Name
  CoilHeatingElectric 1 Outlet Air Node;  !- Setpoint Node or NodeList Name

Fan:VariableVolume,
  Supply Fan 1,                           !- Name
  sys_6|mixed|shr>none|sc>ccashp|sh>ccashp|ssf>vv|zh>b-e|zc>none|srf>vv| 1 Occ Sch, !- Availability Schedule Name
  0.549965,                               !- Fan Total Efficiency
  1000,                                   !- Pressure Rise {Pa}
  AutoSize,                               !- Maximum Flow Rate {m3/s}
  Fraction,                               !- Fan Power Minimum Flow Rate Input Method
  0.5,                                    !- Fan Power Minimum Flow Fraction
  0,                                      !- Fan Power Minimum Air Flow Rate {m3/s}
  0.8461,                                 !- Motor Efficiency
  1,                                      !- Motor In Airstream Fraction
  -4.1457,                                !- Fan Power Coefficient 1
  16.803,                                 !- Fan Power Coefficient 2
  -19.471,                                !- Fan Power Coefficient 3
  7.8488,                                 !- Fan Power Coefficient 4
  0,                                      !- Fan Power Coefficient 5
  CoilHeatingElectric 1 Outlet Air Node,  !- Air Inlet Node Name
  sys_6|mixed|shr>erv|sc>ccashp|sh>ccashp|ssf>vv|zh>b-e|zc>none|srf>vv| 1 Supply Outlet Node, !- Air Outlet Node Name
  General;                                !- End-Use Subcategory

SetpointManager:Warmest,
  Setpoint Manager Warmest 2,             !- Name
  Temperature,                            !- Control Variable
  sys_6|mixed|shr>erv|sc>ccashp|sh>ccashp|ssf>vv|zh>b-e|zc>none|srf>vv| 1, !- HVAC Air Loop Name
  13,                                     !- Minimum Setpoint Temperature {C}
  22,                                     !- Maximum Setpoint Temperature {C}
  MaximumTemperature,                     !- Strategy
  sys_6|mixed|shr>erv|sc>ccashp|sh>ccashp|ssf>vv|zh>b-e|zc>none|srf>vv| 1 Supply Outlet Node; !- Setpoint Node or NodeList Name

AirLoopHVAC:SupplyPath,
  sys_6|mixed|shr>erv|sc>ccashp|sh>ccashp|ssf>vv|zh>b-e|zc>none|srf>vv| 1 sys_6|mixed|shr>erv|sc>ccashp|sh>ccashp|ssf>vv|zh>b-e|zc>none|srf>vv| 1 Demand Inlet Node Supply Path, !- Name
  sys_6|mixed|shr>erv|sc>ccashp|sh>ccashp|ssf>vv|zh>b-e|zc>none|srf>vv| 1 Demand Inlet Node, !- Supply Air Path Inlet Node Name
  AirLoopHVAC:ZoneSplitter,               !- Component Object Type 1
  Air Loop HVAC Zone Splitter 2;          !- Component Name 1

AirLoopHVAC:ZoneSplitter,
  Air Loop HVAC Zone Splitter 2,          !- Name
  sys_6|mixed|shr>erv|sc>ccashp|sh>ccashp|ssf>vv|zh>b-e|zc>none|srf>vv| 1 Demand Inlet Node, !- Inlet Node Name
  Air Terminal Single Duct VAV Reheat 6 Inlet Air Node, !- Outlet Node Name 1
  Air Terminal Single Duct VAV Reheat 7 Inlet Air Node, !- Outlet Node Name 2
  Air Terminal Single Duct VAV Reheat 8 Inlet Air Node, !- Outlet Node Name 3
  Air Terminal Single Duct VAV Reheat 9 Inlet Air Node, !- Outlet Node Name 4
  Air Terminal Single Duct VAV Reheat 10 Inlet Air Node; !- Outlet Node Name 5

AirLoopHVAC:ReturnPath,
  sys_6|mixed|shr>erv|sc>ccashp|sh>ccashp|ssf>vv|zh>b-e|zc>none|srf>vv| 1 Return Path, !- Name
  sys_6|mixed|shr>erv|sc>ccashp|sh>ccashp|ssf>vv|zh>b-e|zc>none|srf>vv| 1 Demand Outlet Node, !- Return Air Path Outlet Node Name
  AirLoopHVAC:ZoneMixer,                  !- Component Object Type 1
  Air Loop HVAC Zone Mixer 2;             !- Component Name 1

AirLoopHVAC:ZoneMixer,
  Air Loop HVAC Zone Mixer 2,             !- Name
  sys_6|mixed|shr>erv|sc>ccashp|sh>ccashp|ssf>vv|zh>b-e|zc>none|srf>vv| 1 Demand Outlet Node, !- Outlet Node Name
  ALL_ST=Office open plan_FL=Building Story 2_SCH=A Return Air Node, !- Inlet Node Name 1
  ALL_ST=Office open plan_FL=Building Story 2_SCH=A 1 Return Air Node, !- Inlet Node Name 2
  ALL_ST=Office open plan_FL=Building Story 2_SCH=A 2 Return Air Node, !- Inlet Node Name 3
  ALL_ST=Office open plan_FL=Building Story 2_SCH=A 3 Return Air Node, !- Inlet Node Name 4
  ALL_ST=Office open plan_FL=Building Story 2_SCH=A 4 Return Air Node; !- Inlet Node Name 5

AirLoopHVAC,
  sys_6|mixed|shr>erv|sc>ccashp|sh>ccashp|ssf>vv|zh>b-e|zc>none|srf>vv| 2, !- Name
  ,                                       !- Controller List Name
  Air Loop HVAC 1 AvailabilityManagerAssignmentList 2, !- Availability Manager List Name
  AutoSize,                               !- Design Supply Air Flow Rate {m3/s}
  sys_6|mixed|shr>erv|sc>ccashp|sh>ccashp|ssf>vv|zh>b-e|zc>none|srf>vv| 2 Supply Branches, !- Branch List Name
  ,                                       !- Connector List Name
  sys_6|mixed|shr>erv|sc>ccashp|sh>ccashp|ssf>vv|zh>b-e|zc>none|srf>vv| 2 Supply Inlet Node, !- Supply Side Inlet Node Name
  sys_6|mixed|shr>erv|sc>ccashp|sh>ccashp|ssf>vv|zh>b-e|zc>none|srf>vv| 2 Demand Outlet Node, !- Demand Side Outlet Node Name
  sys_6|mixed|shr>erv|sc>ccashp|sh>ccashp|ssf>vv|zh>b-e|zc>none|srf>vv| 2 Demand Inlet Nodes, !- Demand Side Inlet Node Names
  sys_6|mixed|shr>erv|sc>ccashp|sh>ccashp|ssf>vv|zh>b-e|zc>none|srf>vv| 2 Supply Outlet Nodes, !- Supply Side Outlet Node Names
  1;                                      !- Design Return Air Flow Fraction of Supply Air Flow

NodeList,
  sys_6|mixed|shr>erv|sc>ccashp|sh>ccashp|ssf>vv|zh>b-e|zc>none|srf>vv| 2 Supply Outlet Nodes, !- Name
  sys_6|mixed|shr>erv|sc>ccashp|sh>ccashp|ssf>vv|zh>b-e|zc>none|srf>vv| 2 Supply Outlet Node; !- Node Name 1

NodeList,
  sys_6|mixed|shr>erv|sc>ccashp|sh>ccashp|ssf>vv|zh>b-e|zc>none|srf>vv| 2 Demand Inlet Nodes, !- Name
  sys_6|mixed|shr>erv|sc>ccashp|sh>ccashp|ssf>vv|zh>b-e|zc>none|srf>vv| 2 Demand Inlet Node; !- Node Name 1

Sizing:System,
  sys_6|mixed|shr>erv|sc>ccashp|sh>ccashp|ssf>vv|zh>b-e|zc>none|srf>vv| 2, !- AirLoop Name
  Sensible,                               !- Type of Load to Size On
  Autosize,                               !- Design Outdoor Air Flow Rate {m3/s}
  1,                                      !- Central Heating Maximum System Air Flow Ratio
  7,                                      !- Preheat Design Temperature {C}
  0.008,                                  !- Preheat Design Humidity Ratio {kgWater/kgDryAir}
  13,                                     !- Precool Design Temperature {C}
  0.008,                                  !- Precool Design Humidity Ratio {kgWater/kgDryAir}
  13,                                     !- Central Cooling Design Supply Air Temperature {C}
  43,                                     !- Central Heating Design Supply Air Temperature {C}
  NonCoincident,                          !- Type of Zone Sum to Use
  No,                                     !- 100% Outdoor Air in Cooling
  No,                                     !- 100% Outdoor Air in Heating
  0.0085,                                 !- Central Cooling Design Supply Air Humidity Ratio {kgWater/kgDryAir}
  0.008,                                  !- Central Heating Design Supply Air Humidity Ratio {kgWater/kgDryAir}
  DesignDay,                              !- Cooling Supply Air Flow Rate Method
  0,                                      !- Cooling Supply Air Flow Rate {m3/s}
  0.0099676501,                           !- Cooling Supply Air Flow Rate Per Floor Area {m3/s-m2}
  1,                                      !- Cooling Fraction of Autosized Cooling Supply Air Flow Rate
  3.9475456e-05,                          !- Cooling Supply Air Flow Rate Per Unit Cooling Capacity {m3/s-W}
  DesignDay,                              !- Heating Supply Air Flow Rate Method
  0,                                      !- Heating Supply Air Flow Rate {m3/s}
  0.0099676501,                           !- Heating Supply Air Flow Rate Per Floor Area {m3/s-m2}
  1,                                      !- Heating Fraction of Autosized Heating Supply Air Flow Rate
  1,                                      !- Heating Fraction of Autosized Cooling Supply Air Flow Rate
  3.1588213e-05,                          !- Heating Supply Air Flow Rate Per Unit Heating Capacity {m3/s-W}
  ZoneSum,                                !- System Outdoor Air Method
  1,                                      !- Zone Maximum Outdoor Air Fraction {dimensionless}
  CoolingDesignCapacity,                  !- Cooling Design Capacity Method
  Autosize,                               !- Cooling Design Capacity {W}
  234.7,                                  !- Cooling Design Capacity Per Floor Area {W/m2}
  1,                                      !- Fraction of Autosized Cooling Design Capacity
  HeatingDesignCapacity,                  !- Heating Design Capacity Method
  Autosize,                               !- Heating Design Capacity {W}
  157,                                    !- Heating Design Capacity Per Floor Area {W/m2}
  1,                                      !- Fraction of Autosized Heating Design Capacity
  OnOff,                                  !- Central Cooling Capacity Control Method
  Autosize;                               !- Occupant Diversity

AvailabilityManagerAssignmentList,
  Air Loop HVAC 1 AvailabilityManagerAssignmentList 2, !- Name
  AvailabilityManager:NightCycle,         !- Availability Manager Object Type 1
  Availability Manager Night Cycle 3;     !- Availability Manager Name 1

AvailabilityManager:NightCycle,
  Availability Manager Night Cycle 3,     !- Name
  Always On Discrete,                     !- Applicability Schedule Name
  sys_6|mixed|shr>none|sc>ccashp|sh>ccashp|ssf>vv|zh>b-e|zc>none|srf>vv| 2 Occ Sch, !- Fan Schedule Name
  CycleOnAny,                             !- Control Type
  1,                                      !- Thermostat Tolerance {deltaC}
  FixedRunTime,                           !- Cycling Run Time Control Type
  3600;                                   !- Cycling Run Time {s}

BranchList,
  sys_6|mixed|shr>erv|sc>ccashp|sh>ccashp|ssf>vv|zh>b-e|zc>none|srf>vv| 2 Supply Branches, !- Name
  sys_6|mixed|shr>erv|sc>ccashp|sh>ccashp|ssf>vv|zh>b-e|zc>none|srf>vv| 2 Main Branch; !- Branch Name 1

Branch,
  sys_6|mixed|shr>erv|sc>ccashp|sh>ccashp|ssf>vv|zh>b-e|zc>none|srf>vv| 2 Main Branch, !- Name
  ,                                       !- Pressure Drop Curve Name
  Fan:VariableVolume,                     !- Component Object Type 1
  Return Fan 2,                           !- Component Name 1
  sys_6|mixed|shr>erv|sc>ccashp|sh>ccashp|ssf>vv|zh>b-e|zc>none|srf>vv| 2 Supply Inlet Node, !- Component Inlet Node Name 1
  Return Fan 2 Outlet Air Node,           !- Component Outlet Node Name 1
  AirLoopHVAC:OutdoorAirSystem,           !- Component Object Type 2
  Air Loop HVAC Outdoor Air System 3,     !- Component Name 2
  Return Fan 2 Outlet Air Node,           !- Component Inlet Node Name 2
  sys_6|mixed|shr>erv|sc>ccashp|sh>ccashp|ssf>vv|zh>b-e|zc>none|srf>vv| 2 Mixed Air Node, !- Component Outlet Node Name 2
  CoilSystem:Cooling:DX,                  !- Component Object Type 3
  CoilCoolingDXVariableSpeed_CCASHP 2 CoilSystem, !- Component Name 3
  sys_6|mixed|shr>erv|sc>ccashp|sh>ccashp|ssf>vv|zh>b-e|zc>none|srf>vv| 2 Mixed Air Node, !- Component Inlet Node Name 3
  CoilCoolingDXVariableSpeed_CCASHP 2 Outlet Air Node, !- Component Outlet Node Name 3
  CoilSystem:Heating:DX,                  !- Component Object Type 4
  CoilHeatingDXVariableSpeed_CCASHP 2 CoilSystem, !- Component Name 4
  CoilCoolingDXVariableSpeed_CCASHP 2 Outlet Air Node, !- Component Inlet Node Name 4
  CoilHeatingDXVariableSpeed_CCASHP 2 Outlet Air Node, !- Component Outlet Node Name 4
  Coil:Heating:Electric,                  !- Component Object Type 5
  CoilHeatingElectric 2,                  !- Component Name 5
  CoilHeatingDXVariableSpeed_CCASHP 2 Outlet Air Node, !- Component Inlet Node Name 5
  CoilHeatingElectric 2 Outlet Air Node,  !- Component Outlet Node Name 5
  Fan:VariableVolume,                     !- Component Object Type 6
  Supply Fan 2,                           !- Component Name 6
  CoilHeatingElectric 2 Outlet Air Node,  !- Component Inlet Node Name 6
  sys_6|mixed|shr>erv|sc>ccashp|sh>ccashp|ssf>vv|zh>b-e|zc>none|srf>vv| 2 Supply Outlet Node; !- Component Outlet Node Name 6

Fan:VariableVolume,
  Return Fan 2,                           !- Name
  sys_6|mixed|shr>none|sc>ccashp|sh>ccashp|ssf>vv|zh>b-e|zc>none|srf>vv| 2 Occ Sch, !- Availability Schedule Name
  0.299975,                               !- Fan Total Efficiency
  250,                                    !- Pressure Rise {Pa}
  AutoSize,                               !- Maximum Flow Rate {m3/s}
  Fraction,                               !- Fan Power Minimum Flow Rate Input Method
  0.68,                                   !- Fan Power Minimum Flow Fraction
  0,                                      !- Fan Power Minimum Air Flow Rate {m3/s}
  0.4615,                                 !- Motor Efficiency
  1,                                      !- Motor In Airstream Fraction
  -2.4176,                                !- Fan Power Coefficient 1
  9.5874,                                 !- Fan Power Coefficient 2
  -11.559,                                !- Fan Power Coefficient 3
  5.4009,                                 !- Fan Power Coefficient 4
  0,                                      !- Fan Power Coefficient 5
  sys_6|mixed|shr>erv|sc>ccashp|sh>ccashp|ssf>vv|zh>b-e|zc>none|srf>vv| 2 Supply Inlet Node, !- Air Inlet Node Name
  Return Fan 2 Outlet Air Node,           !- Air Outlet Node Name
  General;                                !- End-Use Subcategory

SetpointManager:MixedAir,
  Return Fan 2 Outlet Air Node OS Default SPM, !- Name
  Temperature,                            !- Control Variable
  sys_6|mixed|shr>erv|sc>ccashp|sh>ccashp|ssf>vv|zh>b-e|zc>none|srf>vv| 2 Supply Outlet Node, !- Reference Setpoint Node Name
  CoilHeatingElectric 2 Outlet Air Node,  !- Fan Inlet Node Name
  sys_6|mixed|shr>erv|sc>ccashp|sh>ccashp|ssf>vv|zh>b-e|zc>none|srf>vv| 2 Supply Outlet Node, !- Fan Outlet Node Name
  Return Fan 2 Outlet Air Node;           !- Setpoint Node or NodeList Name

AirLoopHVAC:OutdoorAirSystem,
  Air Loop HVAC Outdoor Air System 3,     !- Name
  Air Loop HVAC Outdoor Air System 3 Controller List, !- Controller List Name
  Air Loop HVAC Outdoor Air System 3 Equipment List; !- Outdoor Air Equipment List Name

AirLoopHVAC:ControllerList,
  Air Loop HVAC Outdoor Air System 3 Controller List, !- Name
  Controller:OutdoorAir,                  !- Controller Object Type 1
  Controller Outdoor Air 3;               !- Controller Name 1

Controller:OutdoorAir,
  Controller Outdoor Air 3,               !- Name
  sys_6|mixed|shr>none|sc>ccashp|sh>ccashp|ssf>vv|zh>b-e|zc>none|srf>vv| 2 ERV Secondary Inlet Air Node, !- Relief Air Outlet Node Name
  Return Fan 2 Outlet Air Node,           !- Return Air Node Name
  sys_6|mixed|shr>erv|sc>ccashp|sh>ccashp|ssf>vv|zh>b-e|zc>none|srf>vv| 2 Mixed Air Node, !- Mixed Air Node Name
  sys_6|mixed|shr>erv|sc>ccashp|sh>ccashp|ssf>vv|zh>b-e|zc>none|srf>vv| 2 Outdoor Air Node, !- Actuator Node Name
  Autosize,                               !- Minimum Outdoor Air Flow Rate {m3/s}
  Autosize,                               !- Maximum Outdoor Air Flow Rate {m3/s}
  DifferentialEnthalpy,                   !- Economizer Control Type
  ModulateFlow,                           !- Economizer Control Action Type
  ,                                       !- Economizer Maximum Limit Dry-Bulb Temperature {C}
  ,                                       !- Economizer Maximum Limit Enthalpy {J/kg}
  ,                                       !- Economizer Maximum Limit Dewpoint Temperature {C}
  ,                                       !- Electronic Enthalpy Limit Curve Name
  ,                                       !- Economizer Minimum Limit Dry-Bulb Temperature {C}
  NoLockout,                              !- Lockout Type
  FixedMinimum,                           !- Minimum Limit Type
  sys_6|mixed|shr>none|sc>ccashp|sh>ccashp|ssf>vv|zh>b-e|zc>none|srf>vv| 2 Occ Sch, !- Minimum Outdoor Air Schedule Name
  ,                                       !- Minimum Fraction of Outdoor Air Schedule Name
  ,                                       !- Maximum Fraction of Outdoor Air Schedule Name
  Controller Mechanical Ventilation 3,    !- Mechanical Ventilation Controller Name
  ,                                       !- Time of Day Economizer Control Schedule Name
  No,                                     !- High Humidity Control
  ,                                       !- Humidistat Control Zone Name
  1,                                      !- High Humidity Outdoor Air Flow Ratio
  Yes,                                    !- Control High Indoor Humidity Based on Outdoor Humidity Ratio
  BypassWhenOAFlowGreaterThanMinimum,     !- Heat Recovery Bypass Control Type
  InterlockedWithMechanicalCooling;       !- Economizer Operation Staging

OutdoorAir:NodeList,
  sys_6|mixed|shr>erv|sc>ccashp|sh>ccashp|ssf>vv|zh>b-e|zc>none|srf>vv| 2 Outdoor Air Node; !- Node or NodeList Name 1

AirLoopHVAC:OutdoorAirSystem:EquipmentList,
  Air Loop HVAC Outdoor Air System 3 Equipment List, !- Name
  OutdoorAir:Mixer,                       !- Component Object Type 1
  Air Loop HVAC Outdoor Air System 3 Outdoor Air Mixer, !- Component Name 1
  HeatExchanger:AirToAir:SensibleAndLatent, !- Component Object Type 2
  sys_6|mixed|shr>none|sc>ccashp|sh>ccashp|ssf>vv|zh>b-e|zc>none|srf>vv| 2 ERV; !- Component Name 2

OutdoorAir:Mixer,
  Air Loop HVAC Outdoor Air System 3 Outdoor Air Mixer, !- Name
  sys_6|mixed|shr>erv|sc>ccashp|sh>ccashp|ssf>vv|zh>b-e|zc>none|srf>vv| 2 Mixed Air Node, !- Mixed Air Node Name
  sys_6|mixed|shr>none|sc>ccashp|sh>ccashp|ssf>vv|zh>b-e|zc>none|srf>vv| 2 ERV Primary Outlet Air Node, !- Outdoor Air Stream Node Name
  sys_6|mixed|shr>none|sc>ccashp|sh>ccashp|ssf>vv|zh>b-e|zc>none|srf>vv| 2 ERV Secondary Inlet Air Node, !- Relief Air Stream Node Name
  Return Fan 2 Outlet Air Node;           !- Return Air Stream Node Name

HeatExchanger:AirToAir:SensibleAndLatent,
  sys_6|mixed|shr>none|sc>ccashp|sh>ccashp|ssf>vv|zh>b-e|zc>none|srf>vv| 2 ERV, !- Name
  Always On Discrete,                     !- Availability Schedule Name
  Autosize,                               !- Nominal Supply Air Flow Rate {m3/s}
  0.5,                                    !- Sensible Effectiveness at 100% Heating Air Flow {dimensionless}
  0.5,                                    !- Latent Effectiveness at 100% Heating Air Flow {dimensionless}
  0.5,                                    !- Sensible Effectiveness at 100% Cooling Air Flow {dimensionless}
  0.5,                                    !- Latent Effectiveness at 100% Cooling Air Flow {dimensionless}
  sys_6|mixed|shr>erv|sc>ccashp|sh>ccashp|ssf>vv|zh>b-e|zc>none|srf>vv| 2 Outdoor Air Node, !- Supply Air Inlet Node Name
  sys_6|mixed|shr>none|sc>ccashp|sh>ccashp|ssf>vv|zh>b-e|zc>none|srf>vv| 2 ERV Primary Outlet Air Node, !- Supply Air Outlet Node Name
  sys_6|mixed|shr>none|sc>ccashp|sh>ccashp|ssf>vv|zh>b-e|zc>none|srf>vv| 2 ERV Secondary Inlet Air Node, !- Exhaust Air Inlet Node Name
  sys_6|mixed|shr>erv|sc>ccashp|sh>ccashp|ssf>vv|zh>b-e|zc>none|srf>vv| 2 Relief Air Node, !- Exhaust Air Outlet Node Name
  564.521132154065,                       !- Nominal Electric Power {W}
  Yes,                                    !- Supply Air Outlet Temperature Control
  Rotary,                                 !- Heat Exchanger Type
  ExhaustOnly,                            !- Frost Control Type
  -23.3,                                  !- Threshold Temperature {C}
  0.167,                                  !- Initial Defrost Time Fraction {dimensionless}
  1.44,                                   !- Rate of Defrost Time Fraction Increase {1/K}
  Yes,                                    !- Economizer Lockout
  sys_6|mixed|shr>none|sc>ccashp|sh>ccashp|ssf>vv|zh>b-e|zc>none|srf>vv| 2 ERV_SensHeatEff 1, !- Sensible Effectiveness of Heating Air Flow Curve Name
  sys_6|mixed|shr>none|sc>ccashp|sh>ccashp|ssf>vv|zh>b-e|zc>none|srf>vv| 2 ERV_LatHeatEff 1, !- Latent Effectiveness of Heating Air Flow Curve Name
  sys_6|mixed|shr>none|sc>ccashp|sh>ccashp|ssf>vv|zh>b-e|zc>none|srf>vv| 2 ERV_SensCoolEff 1, !- Sensible Effectiveness of Cooling Air Flow Curve Name
  sys_6|mixed|shr>none|sc>ccashp|sh>ccashp|ssf>vv|zh>b-e|zc>none|srf>vv| 2 ERV_LatCoolEff 1; !- Latent Effectiveness of Cooling Air Flow Curve Name

Table:Lookup,
  sys_6|mixed|shr>none|sc>ccashp|sh>ccashp|ssf>vv|zh>b-e|zc>none|srf>vv| 2 ERV_SensHeatEff 1, !- Name
  sys_6|mixed|shr>none|sc>ccashp|sh>ccashp|ssf>vv|zh>b-e|zc>none|srf>vv| 2 ERV_SensHeatEff 1 Independent Variable List, !- Independent Variable List Name
  DivisorOnly,                            !- Normalization Method
  0.5,                                    !- Normalization Divisor
  0,                                      !- Minimum Output {BasedOnField A4}
  10,                                     !- Maximum Output {BasedOnField A4}
  Dimensionless,                          !- Output Unit Type
  ,                                       !- External File Name
  ,                                       !- External File Column Number
  ,                                       !- External File Starting Row Number
  0.5,                                    !- Output Value 1 {BasedOnField A4}
  0.5;                                    !- Output Value 2 {BasedOnField A4}

Table:IndependentVariableList,
  sys_6|mixed|shr>none|sc>ccashp|sh>ccashp|ssf>vv|zh>b-e|zc>none|srf>vv| 2 ERV_SensHeatEff 1 Independent Variable List, !- Name
  sys_6|mixed|shr>none|sc>ccashp|sh>ccashp|ssf>vv|zh>b-e|zc>none|srf>vv| 2 ERV_SensibleHeating_IndependentVariable; !- Independent Variable Name 1

Table:IndependentVariable,
  sys_6|mixed|shr>none|sc>ccashp|sh>ccashp|ssf>vv|zh>b-e|zc>none|srf>vv| 2 ERV_SensibleHeating_IndependentVariable, !- Name
  Linear,                                 !- Interpolation Method
  Linear,                                 !- Extrapolation Method
  0,                                      !- Minimum Value {BasedOnField A4}
  10,                                     !- Maximum Value {BasedOnField A4}
  ,                                       !- Normalization Reference Value {BasedOnField A4}
  Dimensionless,                          !- Unit Type
  ,                                       !- External File Name
  ,                                       !- External File Column Number
  ,                                       !- External File Starting Row Number
  0.75,                                   !- Value 1
  1;                                      !- Value 2

Table:Lookup,
  sys_6|mixed|shr>none|sc>ccashp|sh>ccashp|ssf>vv|zh>b-e|zc>none|srf>vv| 2 ERV_LatHeatEff 1, !- Name
  sys_6|mixed|shr>none|sc>ccashp|sh>ccashp|ssf>vv|zh>b-e|zc>none|srf>vv| 2 ERV_LatHeatEff 1 Independent Variable List, !- Independent Variable List Name
  DivisorOnly,                            !- Normalization Method
  0.5,                                    !- Normalization Divisor
  0,                                      !- Minimum Output {BasedOnField A4}
  10,                                     !- Maximum Output {BasedOnField A4}
  Dimensionless,                          !- Output Unit Type
  ,                                       !- External File Name
  ,                                       !- External File Column Number
  ,                                       !- External File Starting Row Number
  0.5,                                    !- Output Value 1 {BasedOnField A4}
  0.5;                                    !- Output Value 2 {BasedOnField A4}

Table:IndependentVariableList,
  sys_6|mixed|shr>none|sc>ccashp|sh>ccashp|ssf>vv|zh>b-e|zc>none|srf>vv| 2 ERV_LatHeatEff 1 Independent Variable List, !- Name
  sys_6|mixed|shr>none|sc>ccashp|sh>ccashp|ssf>vv|zh>b-e|zc>none|srf>vv| 2 ERV_LatentHeating_IndependentVariable; !- Independent Variable Name 1

Table:IndependentVariable,
  sys_6|mixed|shr>none|sc>ccashp|sh>ccashp|ssf>vv|zh>b-e|zc>none|srf>vv| 2 ERV_LatentHeating_IndependentVariable, !- Name
  Linear,                                 !- Interpolation Method
  Linear,                                 !- Extrapolation Method
  0,                                      !- Minimum Value {BasedOnField A4}
  10,                                     !- Maximum Value {BasedOnField A4}
  ,                                       !- Normalization Reference Value {BasedOnField A4}
  Dimensionless,                          !- Unit Type
  ,                                       !- External File Name
  ,                                       !- External File Column Number
  ,                                       !- External File Starting Row Number
  0.75,                                   !- Value 1
  1;                                      !- Value 2

Table:Lookup,
  sys_6|mixed|shr>none|sc>ccashp|sh>ccashp|ssf>vv|zh>b-e|zc>none|srf>vv| 2 ERV_SensCoolEff 1, !- Name
  sys_6|mixed|shr>none|sc>ccashp|sh>ccashp|ssf>vv|zh>b-e|zc>none|srf>vv| 2 ERV_SensCoolEff 1 Independent Variable List, !- Independent Variable List Name
  DivisorOnly,                            !- Normalization Method
  0.5,                                    !- Normalization Divisor
  0,                                      !- Minimum Output {BasedOnField A4}
  10,                                     !- Maximum Output {BasedOnField A4}
  Dimensionless,                          !- Output Unit Type
  ,                                       !- External File Name
  ,                                       !- External File Column Number
  ,                                       !- External File Starting Row Number
  0.5,                                    !- Output Value 1 {BasedOnField A4}
  0.5;                                    !- Output Value 2 {BasedOnField A4}

Table:IndependentVariableList,
  sys_6|mixed|shr>none|sc>ccashp|sh>ccashp|ssf>vv|zh>b-e|zc>none|srf>vv| 2 ERV_SensCoolEff 1 Independent Variable List, !- Name
  sys_6|mixed|shr>none|sc>ccashp|sh>ccashp|ssf>vv|zh>b-e|zc>none|srf>vv| 2 ERV_SensibleCooling_IndependentVariable; !- Independent Variable Name 1

Table:IndependentVariable,
  sys_6|mixed|shr>none|sc>ccashp|sh>ccashp|ssf>vv|zh>b-e|zc>none|srf>vv| 2 ERV_SensibleCooling_IndependentVariable, !- Name
  Linear,                                 !- Interpolation Method
  Linear,                                 !- Extrapolation Method
  0,                                      !- Minimum Value {BasedOnField A4}
  10,                                     !- Maximum Value {BasedOnField A4}
  ,                                       !- Normalization Reference Value {BasedOnField A4}
  Dimensionless,                          !- Unit Type
  ,                                       !- External File Name
  ,                                       !- External File Column Number
  ,                                       !- External File Starting Row Number
  0.75,                                   !- Value 1
  1;                                      !- Value 2

Table:Lookup,
  sys_6|mixed|shr>none|sc>ccashp|sh>ccashp|ssf>vv|zh>b-e|zc>none|srf>vv| 2 ERV_LatCoolEff 1, !- Name
  sys_6|mixed|shr>none|sc>ccashp|sh>ccashp|ssf>vv|zh>b-e|zc>none|srf>vv| 2 ERV_LatCoolEff 1 Independent Variable List, !- Independent Variable List Name
  DivisorOnly,                            !- Normalization Method
  0.5,                                    !- Normalization Divisor
  0,                                      !- Minimum Output {BasedOnField A4}
  10,                                     !- Maximum Output {BasedOnField A4}
  Dimensionless,                          !- Output Unit Type
  ,                                       !- External File Name
  ,                                       !- External File Column Number
  ,                                       !- External File Starting Row Number
  0.5,                                    !- Output Value 1 {BasedOnField A4}
  0.5;                                    !- Output Value 2 {BasedOnField A4}

Table:IndependentVariableList,
  sys_6|mixed|shr>none|sc>ccashp|sh>ccashp|ssf>vv|zh>b-e|zc>none|srf>vv| 2 ERV_LatCoolEff 1 Independent Variable List, !- Name
  sys_6|mixed|shr>none|sc>ccashp|sh>ccashp|ssf>vv|zh>b-e|zc>none|srf>vv| 2 ERV_LatentCooling_IndependentVariable; !- Independent Variable Name 1

Table:IndependentVariable,
  sys_6|mixed|shr>none|sc>ccashp|sh>ccashp|ssf>vv|zh>b-e|zc>none|srf>vv| 2 ERV_LatentCooling_IndependentVariable, !- Name
  Linear,                                 !- Interpolation Method
  Linear,                                 !- Extrapolation Method
  0,                                      !- Minimum Value {BasedOnField A4}
  10,                                     !- Maximum Value {BasedOnField A4}
  ,                                       !- Normalization Reference Value {BasedOnField A4}
  Dimensionless,                          !- Unit Type
  ,                                       !- External File Name
  ,                                       !- External File Column Number
  ,                                       !- External File Starting Row Number
  0.75,                                   !- Value 1
  1;                                      !- Value 2

SetpointManager:OutdoorAirPretreat,
  Setpoint Manager Outdoor Air Pretreat 3, !- Name
  Temperature,                            !- Control Variable
  -99,                                    !- Minimum Setpoint Temperature {C}
  99,                                     !- Maximum Setpoint Temperature {C}
  1e-05,                                  !- Minimum Setpoint Humidity Ratio {kgWater/kgDryAir}
  1,                                      !- Maximum Setpoint Humidity Ratio {kgWater/kgDryAir}
  sys_6|mixed|shr>erv|sc>ccashp|sh>ccashp|ssf>vv|zh>b-e|zc>none|srf>vv| 2 Mixed Air Node, !- Reference Setpoint Node Name
  sys_6|mixed|shr>erv|sc>ccashp|sh>ccashp|ssf>vv|zh>b-e|zc>none|srf>vv| 2 Mixed Air Node, !- Mixed Air Stream Node Name
  sys_6|mixed|shr>erv|sc>ccashp|sh>ccashp|ssf>vv|zh>b-e|zc>none|srf>vv| 2 Outdoor Air Node, !- Outdoor Air Stream Node Name
  Return Fan 2 Outlet Air Node,           !- Return Air Stream Node Name
  sys_6|mixed|shr>none|sc>ccashp|sh>ccashp|ssf>vv|zh>b-e|zc>none|srf>vv| 2 ERV Primary Outlet Air Node; !- Setpoint Node or NodeList Name

SetpointManager:MixedAir,
  sys_6|mixed|shr>erv|sc>ccashp|sh>ccashp|ssf>vv|zh>b-e|zc>none|srf>vv| 2 Mixed Air Node OS Default SPM, !- Name
  Temperature,                            !- Control Variable
  sys_6|mixed|shr>erv|sc>ccashp|sh>ccashp|ssf>vv|zh>b-e|zc>none|srf>vv| 2 Supply Outlet Node, !- Reference Setpoint Node Name
  CoilHeatingElectric 2 Outlet Air Node,  !- Fan Inlet Node Name
  sys_6|mixed|shr>erv|sc>ccashp|sh>ccashp|ssf>vv|zh>b-e|zc>none|srf>vv| 2 Supply Outlet Node, !- Fan Outlet Node Name
  sys_6|mixed|shr>erv|sc>ccashp|sh>ccashp|ssf>vv|zh>b-e|zc>none|srf>vv| 2 Mixed Air Node; !- Setpoint Node or NodeList Name

CoilSystem:Cooling:DX,
  CoilCoolingDXVariableSpeed_CCASHP 2 CoilSystem, !- Name
  ,                                       !- Availability Schedule Name
  sys_6|mixed|shr>erv|sc>ccashp|sh>ccashp|ssf>vv|zh>b-e|zc>none|srf>vv| 2 Mixed Air Node, !- DX Cooling Coil System Inlet Node Name
  CoilCoolingDXVariableSpeed_CCASHP 2 Outlet Air Node, !- DX Cooling Coil System Outlet Node Name
  CoilCoolingDXVariableSpeed_CCASHP 2 Outlet Air Node, !- DX Cooling Coil System Sensor Node Name
  Coil:Cooling:DX:VariableSpeed,          !- Cooling Coil Object Type
  CoilCoolingDXVariableSpeed_CCASHP 2;    !- Cooling Coil Name

Coil:Cooling:DX:VariableSpeed,
  CoilCoolingDXVariableSpeed_CCASHP 2,    !- Name
  sys_6|mixed|shr>erv|sc>ccashp|sh>ccashp|ssf>vv|zh>b-e|zc>none|srf>vv| 2 Mixed Air Node, !- Indoor Air Inlet Node Name
  CoilCoolingDXVariableSpeed_CCASHP 2 Outlet Air Node, !- Indoor Air Outlet Node Name
  1,                                      !- Number of Speeds {dimensionless}
  1,                                      !- Nominal Speed Level {dimensionless}
  121844.8125,                            !- Gross Rated Total Cooling Capacity At Selected Nominal Speed Level {W}
  AutoSize,                               !- Rated Air Flow Rate At Selected Nominal Speed Level {m3/s}
  0,                                      !- Nominal Time for Condensate to Begin Leaving the Coil {s}
  0,                                      !- Initial Moisture Evaporation Rate Divided by Steady-State AC Latent Capacity {dimensionless}
  2.5,                                    !- Maximum Cycling Rate {cycles/hr}
  60,                                     !- Latent Capacity Time Constant {s}
  60,                                     !- Fan Delay Time {s}
  Mitsubishi Hyper Heating VRF Outdoor Unit CPLFFPLR curve, !- Energy Part Load Fraction Curve Name
  ,                                       !- Condenser Air Inlet Node Name
  AirCooled,                              !- Condenser Type
  0,                                      !- Evaporative Condenser Pump Rated Power Consumption {W}
  1e-06,                                  !- Crankcase Heater Capacity {W}
  ,                                       !- Crankcase Heater Capacity Function of Temperature Curve Name
  10,                                     !- Maximum Outdoor Dry-Bulb Temperature for Crankcase Heater Operation {C}
  -25,                                    !- Minimum Outdoor Dry-Bulb Temperature for Compressor Operation {C}
  ,                                       !- Supply Water Storage Tank Name
  ,                                       !- Condensate Collection Water Storage Tank Name
  0,                                      !- Basin Heater Capacity {W/K}
  2,                                      !- Basin Heater Setpoint Temperature {C}
  ,                                       !- Basin Heater Operating Schedule Name
  8914.185229,                            !- Speed Reference Unit Gross Rated Total Cooling Capacity 1 {W}
  0.79,                                   !- Speed Reference Unit Gross Rated Sensible Heat Ratio 1 {dimensionless}
  3.76,                                   !- Speed Reference Unit Gross Rated Cooling COP 1 {W/W}
  0.944,                                  !- Speed Reference Unit Rated Air Flow Rate 1 {m3/s}
  773.3,                                  !- Speed Rated Evaporator Fan Power Per Volume Flow Rate 2017 1 {W/(m3/s)}
  934.4,                                  !- Speed Rated Evaporator Fan Power Per Volume Flow Rate 2023 1 {W/(m3/s)}
  ,                                       !- Speed Reference Unit Rated Condenser Air Flow Rate 1 {m3/s}
  ,                                       !- Speed Reference Unit Rated Pad Effectiveness of Evap Precooling 1 {dimensionless}
  Mitsubishi Hyper Heating VRF Outdoor Unit CCAPFT curve, !- Speed Total Cooling Capacity Function of Temperature Curve Name 1
  Mitsubishi Hyper Heating VRF Outdoor Unit CCAPFFF curve, !- Speed Total Cooling Capacity Function of Air Flow Fraction Curve Name 1
  Mitsubishi Hyper Heating VRF Outdoor Unit CEIRFT curve, !- Speed Energy Input Ratio Function of Temperature Curve Name 1
  Mitsubishi Hyper Heating VRF Outdoor Unit CEIRFFF curve; !- Speed Energy Input Ratio Function of Air Flow Fraction Curve Name 1

SetpointManager:MixedAir,
  CoilCoolingDXVariableSpeed_CCASHP 2 Outlet Air Node OS Default SPM, !- Name
  Temperature,                            !- Control Variable
  sys_6|mixed|shr>erv|sc>ccashp|sh>ccashp|ssf>vv|zh>b-e|zc>none|srf>vv| 2 Supply Outlet Node, !- Reference Setpoint Node Name
  CoilHeatingElectric 2 Outlet Air Node,  !- Fan Inlet Node Name
  sys_6|mixed|shr>erv|sc>ccashp|sh>ccashp|ssf>vv|zh>b-e|zc>none|srf>vv| 2 Supply Outlet Node, !- Fan Outlet Node Name
  CoilCoolingDXVariableSpeed_CCASHP 2 Outlet Air Node; !- Setpoint Node or NodeList Name

CoilSystem:Heating:DX,
  CoilHeatingDXVariableSpeed_CCASHP 2 CoilSystem, !- Name
  ,                                       !- Availability Schedule Name
  Coil:Heating:DX:VariableSpeed,          !- Heating Coil Object Type
  CoilHeatingDXVariableSpeed_CCASHP 2;    !- Heating Coil Name

Coil:Heating:DX:VariableSpeed,
  CoilHeatingDXVariableSpeed_CCASHP 2,    !- Name
  CoilCoolingDXVariableSpeed_CCASHP 2 Outlet Air Node, !- Indoor Air Inlet Node Name
  CoilHeatingDXVariableSpeed_CCASHP 2 Outlet Air Node, !- Indoor Air Outlet Node Name
  1,                                      !- Number of Speeds {dimensionless}
  1,                                      !- Nominal Speed Level {dimensionless}
  121844.8125,                            !- Rated Heating Capacity At Selected Nominal Speed Level {W}
  AutoSize,                               !- Rated Air Flow Rate At Selected Nominal Speed Level {m3/s}
  Mitsubishi Hyper Heating VRF Outdoor Unit HPLFFPLR curve, !- Energy Part Load Fraction Curve Name
  Mitsubishi Hyper Heating VRF Outdoor Unit Defrost HEIRFT curve, !- Defrost Energy Input Ratio Function of Temperature Curve Name
  -25,                                    !- Minimum Outdoor Dry-Bulb Temperature for Compressor Operation {C}
  ,                                       !- Outdoor Dry-Bulb Temperature to Turn On Compressor {C}
  5,                                      !- Maximum Outdoor Dry-Bulb Temperature for Defrost Operation {C}
  1e-06,                                  !- Crankcase Heater Capacity {W}
  ,                                       !- Crankcase Heater Capacity Function of Temperature Curve Name
  10,                                     !- Maximum Outdoor Dry-Bulb Temperature for Crankcase Heater Operation {C}
  ReverseCycle,                           !- Defrost Strategy
  OnDemand,                               !- Defrost Control
  0.166667,                               !- Defrost Time Period Fraction
  AutoSize,                               !- Resistive Defrost Heater Capacity {W}
  9124.853458,                            !- Speed Reference Unit Gross Rated Heating Capacity 1 {W}
  4.35930128923364,                       !- Speed Reference Unit Gross Rated Heating COP 1 {W/W}
  0.653,                                  !- Speed Reference Unit Rated Air Flow Rate 1 {m3/s}
  773.3,                                  !- Speed Rated Supply Air Fan Power Per Volume Flow Rate 2017 1 {W/(m3/s)}
  934.4,                                  !- Speed Rated Supply Air Fan Power Per Volume Flow Rate 2023 1 {W/(m3/s)}
  Mitsubishi Hyper Heating VRF Outdoor Unit HCAPFT curve, !- Speed Heating Capacity Function of Temperature Curve Name 1
  Mitsubishi Hyper Heating VRF Outdoor Unit HCAPFFF curve, !- Speed Total  Heating Capacity Function of Air Flow Fraction Curve Name 1
  Mitsubishi Hyper Heating VRF Outdoor Unit HEIRFT curve, !- Speed Energy Input Ratio Function of Temperature Curve Name 1
  Mitsubishi Hyper Heating VRF Outdoor Unit HEIRFFF curve; !- Speed Energy Input Ratio Function of Air Flow Fraction Curve Name 1

SetpointManager:MixedAir,
  CoilHeatingDXVariableSpeed_CCASHP 2 Outlet Air Node OS Default SPM, !- Name
  Temperature,                            !- Control Variable
  sys_6|mixed|shr>erv|sc>ccashp|sh>ccashp|ssf>vv|zh>b-e|zc>none|srf>vv| 2 Supply Outlet Node, !- Reference Setpoint Node Name
  CoilHeatingElectric 2 Outlet Air Node,  !- Fan Inlet Node Name
  sys_6|mixed|shr>erv|sc>ccashp|sh>ccashp|ssf>vv|zh>b-e|zc>none|srf>vv| 2 Supply Outlet Node, !- Fan Outlet Node Name
  CoilHeatingDXVariableSpeed_CCASHP 2 Outlet Air Node; !- Setpoint Node or NodeList Name

Coil:Heating:Electric,
  CoilHeatingElectric 2,                  !- Name
  Always On Discrete,                     !- Availability Schedule Name
  1,                                      !- Efficiency
  Autosize,                               !- Nominal Capacity {W}
  CoilHeatingDXVariableSpeed_CCASHP 2 Outlet Air Node, !- Air Inlet Node Name
  CoilHeatingElectric 2 Outlet Air Node,  !- Air Outlet Node Name
  CoilHeatingElectric 2 Outlet Air Node;  !- Temperature Setpoint Node Name

SetpointManager:MixedAir,
  CoilHeatingElectric 2 Outlet Air Node OS Default SPM, !- Name
  Temperature,                            !- Control Variable
  sys_6|mixed|shr>erv|sc>ccashp|sh>ccashp|ssf>vv|zh>b-e|zc>none|srf>vv| 2 Supply Outlet Node, !- Reference Setpoint Node Name
  CoilHeatingElectric 2 Outlet Air Node,  !- Fan Inlet Node Name
  sys_6|mixed|shr>erv|sc>ccashp|sh>ccashp|ssf>vv|zh>b-e|zc>none|srf>vv| 2 Supply Outlet Node, !- Fan Outlet Node Name
  CoilHeatingElectric 2 Outlet Air Node;  !- Setpoint Node or NodeList Name

Fan:VariableVolume,
  Supply Fan 2,                           !- Name
  sys_6|mixed|shr>none|sc>ccashp|sh>ccashp|ssf>vv|zh>b-e|zc>none|srf>vv| 2 Occ Sch, !- Availability Schedule Name
  0.549965,                               !- Fan Total Efficiency
  1000,                                   !- Pressure Rise {Pa}
  AutoSize,                               !- Maximum Flow Rate {m3/s}
  Fraction,                               !- Fan Power Minimum Flow Rate Input Method
  0.5,                                    !- Fan Power Minimum Flow Fraction
  0,                                      !- Fan Power Minimum Air Flow Rate {m3/s}
  0.8461,                                 !- Motor Efficiency
  1,                                      !- Motor In Airstream Fraction
  -4.1457,                                !- Fan Power Coefficient 1
  16.803,                                 !- Fan Power Coefficient 2
  -19.471,                                !- Fan Power Coefficient 3
  7.8488,                                 !- Fan Power Coefficient 4
  0,                                      !- Fan Power Coefficient 5
  CoilHeatingElectric 2 Outlet Air Node,  !- Air Inlet Node Name
  sys_6|mixed|shr>erv|sc>ccashp|sh>ccashp|ssf>vv|zh>b-e|zc>none|srf>vv| 2 Supply Outlet Node, !- Air Outlet Node Name
  General;                                !- End-Use Subcategory

SetpointManager:Warmest,
  Setpoint Manager Warmest 3,             !- Name
  Temperature,                            !- Control Variable
  sys_6|mixed|shr>erv|sc>ccashp|sh>ccashp|ssf>vv|zh>b-e|zc>none|srf>vv| 2, !- HVAC Air Loop Name
  13,                                     !- Minimum Setpoint Temperature {C}
  22,                                     !- Maximum Setpoint Temperature {C}
  MaximumTemperature,                     !- Strategy
  sys_6|mixed|shr>erv|sc>ccashp|sh>ccashp|ssf>vv|zh>b-e|zc>none|srf>vv| 2 Supply Outlet Node; !- Setpoint Node or NodeList Name

AirLoopHVAC:SupplyPath,
  sys_6|mixed|shr>erv|sc>ccashp|sh>ccashp|ssf>vv|zh>b-e|zc>none|srf>vv| 2 sys_6|mixed|shr>erv|sc>ccashp|sh>ccashp|ssf>vv|zh>b-e|zc>none|srf>vv| 2 Demand Inlet Node Supply Path, !- Name
  sys_6|mixed|shr>erv|sc>ccashp|sh>ccashp|ssf>vv|zh>b-e|zc>none|srf>vv| 2 Demand Inlet Node, !- Supply Air Path Inlet Node Name
  AirLoopHVAC:ZoneSplitter,               !- Component Object Type 1
  Air Loop HVAC Zone Splitter 3;          !- Component Name 1

AirLoopHVAC:ZoneSplitter,
  Air Loop HVAC Zone Splitter 3,          !- Name
  sys_6|mixed|shr>erv|sc>ccashp|sh>ccashp|ssf>vv|zh>b-e|zc>none|srf>vv| 2 Demand Inlet Node, !- Inlet Node Name
  Air Terminal Single Duct VAV Reheat 11 Inlet Air Node, !- Outlet Node Name 1
  Air Terminal Single Duct VAV Reheat 12 Inlet Air Node, !- Outlet Node Name 2
  Air Terminal Single Duct VAV Reheat 13 Inlet Air Node, !- Outlet Node Name 3
  Air Terminal Single Duct VAV Reheat 14 Inlet Air Node, !- Outlet Node Name 4
  Air Terminal Single Duct VAV Reheat 15 Inlet Air Node; !- Outlet Node Name 5

AirLoopHVAC:ReturnPath,
  sys_6|mixed|shr>erv|sc>ccashp|sh>ccashp|ssf>vv|zh>b-e|zc>none|srf>vv| 2 Return Path, !- Name
  sys_6|mixed|shr>erv|sc>ccashp|sh>ccashp|ssf>vv|zh>b-e|zc>none|srf>vv| 2 Demand Outlet Node, !- Return Air Path Outlet Node Name
  AirLoopHVAC:ZoneMixer,                  !- Component Object Type 1
  Air Loop HVAC Zone Mixer 3;             !- Component Name 1

AirLoopHVAC:ZoneMixer,
  Air Loop HVAC Zone Mixer 3,             !- Name
  sys_6|mixed|shr>erv|sc>ccashp|sh>ccashp|ssf>vv|zh>b-e|zc>none|srf>vv| 2 Demand Outlet Node, !- Outlet Node Name
  ALL_ST=Office open plan_FL=Building Story 3_SCH=A Return Air Node, !- Inlet Node Name 1
  ALL_ST=Office open plan_FL=Building Story 3_SCH=A 1 Return Air Node, !- Inlet Node Name 2
  ALL_ST=Office open plan_FL=Building Story 3_SCH=A 2 Return Air Node, !- Inlet Node Name 3
  ALL_ST=Office open plan_FL=Building Story 3_SCH=A 3 Return Air Node, !- Inlet Node Name 4
  ALL_ST=Office open plan_FL=Building Story 3_SCH=A 4 Return Air Node; !- Inlet Node Name 5

PlantLoop,
  Main Service Water Loop,                !- Name
  Water,                                  !- Fluid Type
  ,                                       !- User Defined Fluid Type
  Main Service Water Loop Operation Schemes, !- Plant Equipment Operation Scheme Name
  Main Service Water Loop Supply Outlet Node, !- Loop Temperature Setpoint Node Name
  60,                                     !- Maximum Loop Temperature {C}
  51.6666666666667,                       !- Minimum Loop Temperature {C}
  Autosize,                               !- Maximum Loop Flow Rate {m3/s}
  0,                                      !- Minimum Loop Flow Rate {m3/s}
  Autocalculate,                          !- Plant Loop Volume {m3}
  Main Service Water Loop Supply Inlet Node, !- Plant Side Inlet Node Name
  Main Service Water Loop Supply Outlet Node, !- Plant Side Outlet Node Name
  Main Service Water Loop Supply Branches, !- Plant Side Branch List Name
  Main Service Water Loop Supply Connector List, !- Plant Side Connector List Name
  Main Service Water Loop Demand Inlet Node, !- Demand Side Inlet Node Name
  Main Service Water Loop Demand Outlet Node, !- Demand Side Outlet Node Name
  Main Service Water Loop Demand Branches, !- Demand Side Branch List Name
  Main Service Water Loop Demand Connector List, !- Demand Side Connector List Name
  Optimal,                                !- Load Distribution Scheme
  ,                                       !- Availability Manager List Name
  SingleSetpoint,                         !- Plant Loop Demand Calculation Scheme
  None;                                   !- Common Pipe Simulation

Sizing:Plant,
  Main Service Water Loop,                !- Plant or Condenser Loop Name
  Heating,                                !- Loop Type
  60,                                     !- Design Loop Exit Temperature {C}
  5,                                      !- Loop Design Temperature Difference {deltaC}
  NonCoincident,                          !- Sizing Option
  1,                                      !- Zone Timesteps in Averaging Window
  None;                                   !- Coincident Sizing Factor Mode

BranchList,
  Main Service Water Loop Supply Branches, !- Name
  Main Service Water Loop Supply Inlet Branch, !- Branch Name 1
  Main Service Water Loop Supply Branch 1, !- Branch Name 2
  Main Service Water Loop Supply Branch 2, !- Branch Name 3
  Main Service Water Loop Supply Outlet Branch; !- Branch Name 4

ConnectorList,
  Main Service Water Loop Supply Connector List, !- Name
  Connector:Splitter,                     !- Connector Object Type 1
  Main Service Water Loop Supply Splitter, !- Connector Name 1
  Connector:Mixer,                        !- Connector Object Type 2
  Main Service Water Loop Supply Mixer;   !- Connector Name 2

Connector:Splitter,
  Main Service Water Loop Supply Splitter, !- Name
  Main Service Water Loop Supply Inlet Branch, !- Inlet Branch Name
  Main Service Water Loop Supply Branch 1, !- Outlet Branch Name 1
  Main Service Water Loop Supply Branch 2; !- Outlet Branch Name 2

Connector:Mixer,
  Main Service Water Loop Supply Mixer,   !- Name
  Main Service Water Loop Supply Outlet Branch, !- Outlet Branch Name
  Main Service Water Loop Supply Branch 1, !- Inlet Branch Name 1
  Main Service Water Loop Supply Branch 2; !- Inlet Branch Name 2

Branch,
  Main Service Water Loop Supply Inlet Branch, !- Name
  ,                                       !- Pressure Drop Curve Name
  Pump:ConstantSpeed,                     !- Component Object Type 1
  Main Service Water Loop Circulator Pump, !- Component Name 1
  Main Service Water Loop Supply Inlet Node, !- Component Inlet Node Name 1
  Main Service Water Loop Circulator Pump Outlet Water Node; !- Component Outlet Node Name 1

Pump:ConstantSpeed,
  Main Service Water Loop Circulator Pump, !- Name
  Main Service Water Loop Supply Inlet Node, !- Inlet Node Name
  Main Service Water Loop Circulator Pump Outlet Water Node, !- Outlet Node Name
  Autosize,                               !- Design Flow Rate {m3/s}
  446362.499964258,                       !- Design Pump Head {Pa}
  Autosize,                               !- Design Power Consumption {W}
  0.855,                                  !- Motor Efficiency
  0,                                      !- Fraction of Motor Inefficiencies to Fluid Stream
  Intermittent,                           !- Pump Control Type
  ,                                       !- Pump Flow Rate Schedule Name
  ,                                       !- Pump Curve Name
  ,                                       !- Impeller Diameter {m}
  ,                                       !- Rotational Speed {rev/min}
  ,                                       !- Zone Name
  ,                                       !- Skin Loss Radiative Fraction
  PowerPerFlowPerPressure,                !- Design Power Sizing Method
  348701.1,                               !- Design Electric Power per Unit Flow Rate {W/(m3/s)}
  1.282051282,                            !- Design Shaft Power per Unit Flow Rate per Unit Head {W-s/m3-Pa}
  General;                                !- End-Use Subcategory

Branch,
  Main Service Water Loop Supply Branch 1, !- Name
  ,                                       !- Pressure Drop Curve Name
  WaterHeater:Mixed,                      !- Component Object Type 1
  125gal Electricity Water Heater - 84kBtu/hr 1 Therm Eff, !- Component Name 1
  125gal Electricity Water Heater - 84kBtu/hr 1 Therm Eff Supply Inlet Water Node, !- Component Inlet Node Name 1
  125gal Electricity Water Heater - 84kBtu/hr 1 Therm Eff Supply Outlet Water Node; !- Component Outlet Node Name 1

WaterHeater:Mixed,
  125gal Electricity Water Heater - 84kBtu/hr 1 Therm Eff, !- Name
  0.471544953646784,                      !- Tank Volume {m3}
  Service Water Loop Temp - 140F,         !- Setpoint Temperature Schedule Name
  2,                                      !- Deadband Temperature Difference {deltaC}
  60,                                     !- Maximum Temperature Limit {C}
  Cycle,                                  !- Heater Control Type
  24638.2238280445,                       !- Heater Maximum Capacity {W}
  ,                                       !- Heater Minimum Capacity {W}
  0,                                      !- Heater Ignition Minimum Flow Rate {m3/s}
  0,                                      !- Heater Ignition Delay {s}
  Electricity,                            !- Heater Fuel Type
  1,                                      !- Heater Thermal Efficiency
  ,                                       !- Part Load Factor Curve Name
  58.6905249283305,                       !- Off Cycle Parasitic Fuel Consumption Rate {W}
  Electricity,                            !- Off Cycle Parasitic Fuel Type
  0.8,                                    !- Off Cycle Parasitic Heat Fraction to Tank
  58.6905249283305,                       !- On Cycle Parasitic Fuel Consumption Rate {W}
  Electricity,                            !- On Cycle Parasitic Fuel Type
  0,                                      !- On Cycle Parasitic Heat Fraction to Tank
  Schedule,                               !- Ambient Temperature Indicator
  Water Heater Ambient Temp Schedule 71.6F, !- Ambient Temperature Schedule Name
  ,                                       !- Ambient Temperature Zone Name
  ,                                       !- Ambient Temperature Outdoor Air Node Name
  0.0132874553128062,                     !- Off Cycle Loss Coefficient to Ambient Temperature {W/K}
  1,                                      !- Off Cycle Loss Fraction to Zone
  0.0132874553128062,                     !- On Cycle Loss Coefficient to Ambient Temperature {W/K}
  1,                                      !- On Cycle Loss Fraction to Zone
  ,                                       !- Peak Use Flow Rate {m3/s}
  ,                                       !- Use Flow Rate Fraction Schedule Name
  ,                                       !- Cold Water Supply Temperature Schedule Name
  125gal Electricity Water Heater - 84kBtu/hr 1 Therm Eff Supply Inlet Water Node, !- Use Side Inlet Node Name
  125gal Electricity Water Heater - 84kBtu/hr 1 Therm Eff Supply Outlet Water Node, !- Use Side Outlet Node Name
  1,                                      !- Use Side Effectiveness
  ,                                       !- Source Side Inlet Node Name
  ,                                       !- Source Side Outlet Node Name
  1,                                      !- Source Side Effectiveness
  Autosize,                               !- Use Side Design Flow Rate {m3/s}
  Autosize,                               !- Source Side Design Flow Rate {m3/s}
  1.5,                                    !- Indirect Water Heating Recovery Time {hr}
  IndirectHeatPrimarySetpoint,            !- Source Side Flow Control Mode
  ,                                       !- Indirect Alternate Setpoint Temperature Schedule Name
  General;                                !- End-Use Subcategory

WaterHeater:Sizing,
  125gal Electricity Water Heater - 84kBtu/hr 1 Therm Eff, !- WaterHeater Name
  PeakDraw,                               !- Design Mode
  0.538503,                               !- Time Storage Can Meet Peak Draw {hr}
  1,                                      !- Time for Tank Recovery {hr}
  1;                                      !- Nominal Tank Volume for Autosizing Plant Connections {m3}

Branch,
  Main Service Water Loop Supply Branch 2, !- Name
  ,                                       !- Pressure Drop Curve Name
  Pipe:Adiabatic,                         !- Component Object Type 1
  Pipe Adiabatic 5,                       !- Component Name 1
  Pipe Adiabatic 5 Inlet Water Node,      !- Component Inlet Node Name 1
  Pipe Adiabatic 5 Outlet Water Node;     !- Component Outlet Node Name 1

Pipe:Adiabatic,
  Pipe Adiabatic 5,                       !- Name
  Pipe Adiabatic 5 Inlet Water Node,      !- Inlet Node Name
  Pipe Adiabatic 5 Outlet Water Node;     !- Outlet Node Name

Branch,
  Main Service Water Loop Supply Outlet Branch, !- Name
  ,                                       !- Pressure Drop Curve Name
  Pipe:Adiabatic,                         !- Component Object Type 1
  Pipe Adiabatic 7,                       !- Component Name 1
  Pipe Adiabatic 7 Inlet Water Node,      !- Component Inlet Node Name 1
  Main Service Water Loop Supply Outlet Node; !- Component Outlet Node Name 1

Pipe:Adiabatic,
  Pipe Adiabatic 7,                       !- Name
  Pipe Adiabatic 7 Inlet Water Node,      !- Inlet Node Name
  Main Service Water Loop Supply Outlet Node; !- Outlet Node Name

SetpointManager:Scheduled,
  Service hot water setpoint manager,     !- Name
  Temperature,                            !- Control Variable
  Service Water Loop Temp - 140F,         !- Schedule Name
  Main Service Water Loop Supply Outlet Node; !- Setpoint Node or NodeList Name

BranchList,
  Main Service Water Loop Demand Branches, !- Name
  Main Service Water Loop Demand Inlet Branch, !- Branch Name 1
  Main Service Water Loop Demand Branch 1, !- Branch Name 2
  Main Service Water Loop Demand Branch 2, !- Branch Name 3
  Main Service Water Loop Demand Branch 3, !- Branch Name 4
  Main Service Water Loop Demand Branch 4, !- Branch Name 5
  Main Service Water Loop Demand Branch 5, !- Branch Name 6
  Main Service Water Loop Demand Branch 6, !- Branch Name 7
  Main Service Water Loop Demand Branch 7, !- Branch Name 8
  Main Service Water Loop Demand Branch 8, !- Branch Name 9
  Main Service Water Loop Demand Branch 9, !- Branch Name 10
  Main Service Water Loop Demand Branch 10, !- Branch Name 11
  Main Service Water Loop Demand Branch 11, !- Branch Name 12
  Main Service Water Loop Demand Branch 12, !- Branch Name 13
  Main Service Water Loop Demand Branch 13, !- Branch Name 14
  Main Service Water Loop Demand Branch 14, !- Branch Name 15
  Main Service Water Loop Demand Branch 15, !- Branch Name 16
  Main Service Water Loop Demand Branch 16, !- Branch Name 17
  Main Service Water Loop Demand Bypass Branch, !- Branch Name 18
  Main Service Water Loop Demand Outlet Branch; !- Branch Name 19

ConnectorList,
  Main Service Water Loop Demand Connector List, !- Name
  Connector:Splitter,                     !- Connector Object Type 1
  Main Service Water Loop Demand Splitter, !- Connector Name 1
  Connector:Mixer,                        !- Connector Object Type 2
  Main Service Water Loop Demand Mixer;   !- Connector Name 2

Connector:Splitter,
  Main Service Water Loop Demand Splitter, !- Name
  Main Service Water Loop Demand Inlet Branch, !- Inlet Branch Name
  Main Service Water Loop Demand Branch 1, !- Outlet Branch Name 1
  Main Service Water Loop Demand Branch 2, !- Outlet Branch Name 2
  Main Service Water Loop Demand Branch 3, !- Outlet Branch Name 3
  Main Service Water Loop Demand Branch 4, !- Outlet Branch Name 4
  Main Service Water Loop Demand Branch 5, !- Outlet Branch Name 5
  Main Service Water Loop Demand Branch 6, !- Outlet Branch Name 6
  Main Service Water Loop Demand Branch 7, !- Outlet Branch Name 7
  Main Service Water Loop Demand Branch 8, !- Outlet Branch Name 8
  Main Service Water Loop Demand Branch 9, !- Outlet Branch Name 9
  Main Service Water Loop Demand Branch 10, !- Outlet Branch Name 10
  Main Service Water Loop Demand Branch 11, !- Outlet Branch Name 11
  Main Service Water Loop Demand Branch 12, !- Outlet Branch Name 12
  Main Service Water Loop Demand Branch 13, !- Outlet Branch Name 13
  Main Service Water Loop Demand Branch 14, !- Outlet Branch Name 14
  Main Service Water Loop Demand Branch 15, !- Outlet Branch Name 15
  Main Service Water Loop Demand Branch 16, !- Outlet Branch Name 16
  Main Service Water Loop Demand Bypass Branch; !- Outlet Branch Name 17

Connector:Mixer,
  Main Service Water Loop Demand Mixer,   !- Name
  Main Service Water Loop Demand Outlet Branch, !- Outlet Branch Name
  Main Service Water Loop Demand Branch 1, !- Inlet Branch Name 1
  Main Service Water Loop Demand Branch 2, !- Inlet Branch Name 2
  Main Service Water Loop Demand Branch 3, !- Inlet Branch Name 3
  Main Service Water Loop Demand Branch 4, !- Inlet Branch Name 4
  Main Service Water Loop Demand Branch 5, !- Inlet Branch Name 5
  Main Service Water Loop Demand Branch 6, !- Inlet Branch Name 6
  Main Service Water Loop Demand Branch 7, !- Inlet Branch Name 7
  Main Service Water Loop Demand Branch 8, !- Inlet Branch Name 8
  Main Service Water Loop Demand Branch 9, !- Inlet Branch Name 9
  Main Service Water Loop Demand Branch 10, !- Inlet Branch Name 10
  Main Service Water Loop Demand Branch 11, !- Inlet Branch Name 11
  Main Service Water Loop Demand Branch 12, !- Inlet Branch Name 12
  Main Service Water Loop Demand Branch 13, !- Inlet Branch Name 13
  Main Service Water Loop Demand Branch 14, !- Inlet Branch Name 14
  Main Service Water Loop Demand Branch 15, !- Inlet Branch Name 15
  Main Service Water Loop Demand Branch 16, !- Inlet Branch Name 16
  Main Service Water Loop Demand Bypass Branch; !- Inlet Branch Name 17

Branch,
  Main Service Water Loop Demand Inlet Branch, !- Name
  ,                                       !- Pressure Drop Curve Name
  Pipe:Adiabatic,                         !- Component Object Type 1
  Main Service Water Loop Demand Inlet Pipe, !- Component Name 1
  Main Service Water Loop Demand Inlet Node, !- Component Inlet Node Name 1
  Main Service Water Loop Demand Inlet Pipe Node; !- Component Outlet Node Name 1

Pipe:Adiabatic,
  Main Service Water Loop Demand Inlet Pipe, !- Name
  Main Service Water Loop Demand Inlet Node, !- Inlet Node Name
  Main Service Water Loop Demand Inlet Pipe Node; !- Outlet Node Name

Branch,
  Main Service Water Loop Demand Branch 1, !- Name
  ,                                       !- Pressure Drop Curve Name
  Pipe:Adiabatic,                         !- Component Object Type 1
  Pipe Adiabatic 6,                       !- Component Name 1
  Pipe Adiabatic 6 Inlet Water Node,      !- Component Inlet Node Name 1
  Pipe Adiabatic 6 Outlet Water Node;     !- Component Outlet Node Name 1

Pipe:Adiabatic,
  Pipe Adiabatic 6,                       !- Name
  Pipe Adiabatic 6 Inlet Water Node,      !- Inlet Node Name
  Pipe Adiabatic 6 Outlet Water Node;     !- Outlet Node Name

Branch,
  Main Service Water Loop Demand Branch 2, !- Name
  ,                                       !- Pressure Drop Curve Name
  WaterUse:Connections,                   !- Component Object Type 1
  Core_bottom WUC 0.3726gpm 140F,         !- Component Name 1
  Core_bottom WUC 0.3726gpm 140F Inlet Water Node, !- Component Inlet Node Name 1
  Core_bottom WUC 0.3726gpm 140F Outlet Water Node; !- Component Outlet Node Name 1

WaterUse:Connections,
  Core_bottom WUC 0.3726gpm 140F,         !- Name
  Core_bottom WUC 0.3726gpm 140F Inlet Water Node, !- Inlet Node Name
  Core_bottom WUC 0.3726gpm 140F Outlet Water Node, !- Outlet Node Name
  ,                                       !- Supply Water Storage Tank Name
  ,                                       !- Reclamation Water Storage Tank Name
  ,                                       !- Hot Water Supply Temperature Schedule Name
  ,                                       !- Cold Water Supply Temperature Schedule Name
  None,                                   !- Drain Water Heat Exchanger Type
  Plant,                                  !- Drain Water Heat Exchanger Destination
  ,                                       !- Drain Water Heat Exchanger U-Factor Times Area {W/K}
  Core_bottom Service Water Use 0.3726gpm 140F; !- Water Use Equipment Name 1

WaterUse:Equipment,
  Core_bottom Service Water Use 0.3726gpm 140F, !- Name
  General,                                !- End-Use Subcategory
  2.35070700247297e-05,                   !- Peak Flow Rate {m3/s}
  NECB-A-Service Water Heating,           !- Flow Rate Fraction Schedule Name
  Mixed Water At Faucet Temp - 140F,      !- Target Temperature Schedule Name
  ,                                       !- Hot Water Supply Temperature Schedule Name
  ,                                       !- Cold Water Supply Temperature Schedule Name
  ALL_ST=Office open plan_FL=Building Story 1_SCH=A, !- Zone Name
  Fraction Sensible - 0.2,                !- Sensible Fraction Schedule Name
  Fraction Latent - 0.05;                 !- Latent Fraction Schedule Name

Branch,
  Main Service Water Loop Demand Branch 3, !- Name
  ,                                       !- Pressure Drop Curve Name
  WaterUse:Connections,                   !- Component Object Type 1
  Core_mid WUC 0.3726gpm 140F,            !- Component Name 1
  Core_mid WUC 0.3726gpm 140F Inlet Water Node, !- Component Inlet Node Name 1
  Core_mid WUC 0.3726gpm 140F Outlet Water Node; !- Component Outlet Node Name 1

WaterUse:Connections,
  Core_mid WUC 0.3726gpm 140F,            !- Name
  Core_mid WUC 0.3726gpm 140F Inlet Water Node, !- Inlet Node Name
  Core_mid WUC 0.3726gpm 140F Outlet Water Node, !- Outlet Node Name
  ,                                       !- Supply Water Storage Tank Name
  ,                                       !- Reclamation Water Storage Tank Name
  ,                                       !- Hot Water Supply Temperature Schedule Name
  ,                                       !- Cold Water Supply Temperature Schedule Name
  None,                                   !- Drain Water Heat Exchanger Type
  Plant,                                  !- Drain Water Heat Exchanger Destination
  ,                                       !- Drain Water Heat Exchanger U-Factor Times Area {W/K}
  Core_mid Service Water Use 0.3726gpm 140F; !- Water Use Equipment Name 1

WaterUse:Equipment,
  Core_mid Service Water Use 0.3726gpm 140F, !- Name
  General,                                !- End-Use Subcategory
  2.35070700247297e-05,                   !- Peak Flow Rate {m3/s}
  NECB-A-Service Water Heating,           !- Flow Rate Fraction Schedule Name
  Mixed Water At Faucet Temp - 140F,      !- Target Temperature Schedule Name
  ,                                       !- Hot Water Supply Temperature Schedule Name
  ,                                       !- Cold Water Supply Temperature Schedule Name
  ALL_ST=Office open plan_FL=Building Story 2_SCH=A, !- Zone Name
  Fraction Sensible - 0.2,                !- Sensible Fraction Schedule Name
  Fraction Latent - 0.05;                 !- Latent Fraction Schedule Name

Branch,
  Main Service Water Loop Demand Branch 4, !- Name
  ,                                       !- Pressure Drop Curve Name
  WaterUse:Connections,                   !- Component Object Type 1
  Core_top WUC 0.3726gpm 140F,            !- Component Name 1
  Core_top WUC 0.3726gpm 140F Inlet Water Node, !- Component Inlet Node Name 1
  Core_top WUC 0.3726gpm 140F Outlet Water Node; !- Component Outlet Node Name 1

WaterUse:Connections,
  Core_top WUC 0.3726gpm 140F,            !- Name
  Core_top WUC 0.3726gpm 140F Inlet Water Node, !- Inlet Node Name
  Core_top WUC 0.3726gpm 140F Outlet Water Node, !- Outlet Node Name
  ,                                       !- Supply Water Storage Tank Name
  ,                                       !- Reclamation Water Storage Tank Name
  ,                                       !- Hot Water Supply Temperature Schedule Name
  ,                                       !- Cold Water Supply Temperature Schedule Name
  None,                                   !- Drain Water Heat Exchanger Type
  Plant,                                  !- Drain Water Heat Exchanger Destination
  ,                                       !- Drain Water Heat Exchanger U-Factor Times Area {W/K}
  Core_top Service Water Use 0.3726gpm 140F; !- Water Use Equipment Name 1

WaterUse:Equipment,
  Core_top Service Water Use 0.3726gpm 140F, !- Name
  General,                                !- End-Use Subcategory
  2.35070700247297e-05,                   !- Peak Flow Rate {m3/s}
  NECB-A-Service Water Heating,           !- Flow Rate Fraction Schedule Name
  Mixed Water At Faucet Temp - 140F,      !- Target Temperature Schedule Name
  ,                                       !- Hot Water Supply Temperature Schedule Name
  ,                                       !- Cold Water Supply Temperature Schedule Name
  ALL_ST=Office open plan_FL=Building Story 3_SCH=A 2, !- Zone Name
  Fraction Sensible - 0.2,                !- Sensible Fraction Schedule Name
  Fraction Latent - 0.05;                 !- Latent Fraction Schedule Name

Branch,
  Main Service Water Loop Demand Branch 5, !- Name
  ,                                       !- Pressure Drop Curve Name
  WaterUse:Connections,                   !- Component Object Type 1
  Perimeter_bot_ZN_1 WUC 0.0785gpm 140F,  !- Component Name 1
  Perimeter_bot_ZN_1 WUC 0.0785gpm 140F Inlet Water Node, !- Component Inlet Node Name 1
  Perimeter_bot_ZN_1 WUC 0.0785gpm 140F Outlet Water Node; !- Component Outlet Node Name 1

WaterUse:Connections,
  Perimeter_bot_ZN_1 WUC 0.0785gpm 140F,  !- Name
  Perimeter_bot_ZN_1 WUC 0.0785gpm 140F Inlet Water Node, !- Inlet Node Name
  Perimeter_bot_ZN_1 WUC 0.0785gpm 140F Outlet Water Node, !- Outlet Node Name
  ,                                       !- Supply Water Storage Tank Name
  ,                                       !- Reclamation Water Storage Tank Name
  ,                                       !- Hot Water Supply Temperature Schedule Name
  ,                                       !- Cold Water Supply Temperature Schedule Name
  None,                                   !- Drain Water Heat Exchanger Type
  Plant,                                  !- Drain Water Heat Exchanger Destination
  ,                                       !- Drain Water Heat Exchanger U-Factor Times Area {W/K}
  Perimeter_bot_ZN_1 Service Water Use 0.0785gpm 140F; !- Water Use Equipment Name 1

WaterUse:Equipment,
  Perimeter_bot_ZN_1 Service Water Use 0.0785gpm 140F, !- Name
  General,                                !- End-Use Subcategory
  4.95549666220865e-06,                   !- Peak Flow Rate {m3/s}
  NECB-A-Service Water Heating,           !- Flow Rate Fraction Schedule Name
  Mixed Water At Faucet Temp - 140F,      !- Target Temperature Schedule Name
  ,                                       !- Hot Water Supply Temperature Schedule Name
  ,                                       !- Cold Water Supply Temperature Schedule Name
  ALL_ST=Office open plan_FL=Building Story 1_SCH=A 2, !- Zone Name
  Fraction Sensible - 0.2,                !- Sensible Fraction Schedule Name
  Fraction Latent - 0.05;                 !- Latent Fraction Schedule Name

Branch,
  Main Service Water Loop Demand Branch 6, !- Name
  ,                                       !- Pressure Drop Curve Name
  WaterUse:Connections,                   !- Component Object Type 1
  Perimeter_bot_ZN_2 WUC 0.0497gpm 140F,  !- Component Name 1
  Perimeter_bot_ZN_2 WUC 0.0497gpm 140F Inlet Water Node, !- Component Inlet Node Name 1
  Perimeter_bot_ZN_2 WUC 0.0497gpm 140F Outlet Water Node; !- Component Outlet Node Name 1

WaterUse:Connections,
  Perimeter_bot_ZN_2 WUC 0.0497gpm 140F,  !- Name
  Perimeter_bot_ZN_2 WUC 0.0497gpm 140F Inlet Water Node, !- Inlet Node Name
  Perimeter_bot_ZN_2 WUC 0.0497gpm 140F Outlet Water Node, !- Outlet Node Name
  ,                                       !- Supply Water Storage Tank Name
  ,                                       !- Reclamation Water Storage Tank Name
  ,                                       !- Hot Water Supply Temperature Schedule Name
  ,                                       !- Cold Water Supply Temperature Schedule Name
  None,                                   !- Drain Water Heat Exchanger Type
  Plant,                                  !- Drain Water Heat Exchanger Destination
  ,                                       !- Drain Water Heat Exchanger U-Factor Times Area {W/K}
  Perimeter_bot_ZN_2 Service Water Use 0.0497gpm 140F; !- Water Use Equipment Name 1

WaterUse:Equipment,
  Perimeter_bot_ZN_2 Service Water Use 0.0497gpm 140F, !- Name
  General,                                !- End-Use Subcategory
  3.13723930224434e-06,                   !- Peak Flow Rate {m3/s}
  NECB-A-Service Water Heating,           !- Flow Rate Fraction Schedule Name
  Mixed Water At Faucet Temp - 140F,      !- Target Temperature Schedule Name
  ,                                       !- Hot Water Supply Temperature Schedule Name
  ,                                       !- Cold Water Supply Temperature Schedule Name
  ALL_ST=Office open plan_FL=Building Story 1_SCH=A 1, !- Zone Name
  Fraction Sensible - 0.2,                !- Sensible Fraction Schedule Name
  Fraction Latent - 0.05;                 !- Latent Fraction Schedule Name

Branch,
  Main Service Water Loop Demand Branch 7, !- Name
  ,                                       !- Pressure Drop Curve Name
  WaterUse:Connections,                   !- Component Object Type 1
  Perimeter_bot_ZN_3 WUC 0.0785gpm 140F,  !- Component Name 1
  Perimeter_bot_ZN_3 WUC 0.0785gpm 140F Inlet Water Node, !- Component Inlet Node Name 1
  Perimeter_bot_ZN_3 WUC 0.0785gpm 140F Outlet Water Node; !- Component Outlet Node Name 1

WaterUse:Connections,
  Perimeter_bot_ZN_3 WUC 0.0785gpm 140F,  !- Name
  Perimeter_bot_ZN_3 WUC 0.0785gpm 140F Inlet Water Node, !- Inlet Node Name
  Perimeter_bot_ZN_3 WUC 0.0785gpm 140F Outlet Water Node, !- Outlet Node Name
  ,                                       !- Supply Water Storage Tank Name
  ,                                       !- Reclamation Water Storage Tank Name
  ,                                       !- Hot Water Supply Temperature Schedule Name
  ,                                       !- Cold Water Supply Temperature Schedule Name
  None,                                   !- Drain Water Heat Exchanger Type
  Plant,                                  !- Drain Water Heat Exchanger Destination
  ,                                       !- Drain Water Heat Exchanger U-Factor Times Area {W/K}
  Perimeter_bot_ZN_3 Service Water Use 0.0785gpm 140F; !- Water Use Equipment Name 1

WaterUse:Equipment,
  Perimeter_bot_ZN_3 Service Water Use 0.0785gpm 140F, !- Name
  General,                                !- End-Use Subcategory
  4.95549666220865e-06,                   !- Peak Flow Rate {m3/s}
  NECB-A-Service Water Heating,           !- Flow Rate Fraction Schedule Name
  Mixed Water At Faucet Temp - 140F,      !- Target Temperature Schedule Name
  ,                                       !- Hot Water Supply Temperature Schedule Name
  ,                                       !- Cold Water Supply Temperature Schedule Name
  ALL_ST=Office open plan_FL=Building Story 1_SCH=A 3, !- Zone Name
  Fraction Sensible - 0.2,                !- Sensible Fraction Schedule Name
  Fraction Latent - 0.05;                 !- Latent Fraction Schedule Name

Branch,
  Main Service Water Loop Demand Branch 8, !- Name
  ,                                       !- Pressure Drop Curve Name
  WaterUse:Connections,                   !- Component Object Type 1
  Perimeter_bot_ZN_4 WUC 0.0497gpm 140F,  !- Component Name 1
  Perimeter_bot_ZN_4 WUC 0.0497gpm 140F Inlet Water Node, !- Component Inlet Node Name 1
  Perimeter_bot_ZN_4 WUC 0.0497gpm 140F Outlet Water Node; !- Component Outlet Node Name 1

WaterUse:Connections,
  Perimeter_bot_ZN_4 WUC 0.0497gpm 140F,  !- Name
  Perimeter_bot_ZN_4 WUC 0.0497gpm 140F Inlet Water Node, !- Inlet Node Name
  Perimeter_bot_ZN_4 WUC 0.0497gpm 140F Outlet Water Node, !- Outlet Node Name
  ,                                       !- Supply Water Storage Tank Name
  ,                                       !- Reclamation Water Storage Tank Name
  ,                                       !- Hot Water Supply Temperature Schedule Name
  ,                                       !- Cold Water Supply Temperature Schedule Name
  None,                                   !- Drain Water Heat Exchanger Type
  Plant,                                  !- Drain Water Heat Exchanger Destination
  ,                                       !- Drain Water Heat Exchanger U-Factor Times Area {W/K}
  Perimeter_bot_ZN_4 Service Water Use 0.0497gpm 140F; !- Water Use Equipment Name 1

WaterUse:Equipment,
  Perimeter_bot_ZN_4 Service Water Use 0.0497gpm 140F, !- Name
  General,                                !- End-Use Subcategory
  3.13703351416286e-06,                   !- Peak Flow Rate {m3/s}
  NECB-A-Service Water Heating,           !- Flow Rate Fraction Schedule Name
  Mixed Water At Faucet Temp - 140F,      !- Target Temperature Schedule Name
  ,                                       !- Hot Water Supply Temperature Schedule Name
  ,                                       !- Cold Water Supply Temperature Schedule Name
  ALL_ST=Office open plan_FL=Building Story 1_SCH=A 4, !- Zone Name
  Fraction Sensible - 0.2,                !- Sensible Fraction Schedule Name
  Fraction Latent - 0.05;                 !- Latent Fraction Schedule Name

Branch,
  Main Service Water Loop Demand Branch 9, !- Name
  ,                                       !- Pressure Drop Curve Name
  WaterUse:Connections,                   !- Component Object Type 1
  Perimeter_mid_ZN_1 WUC 0.0785gpm 140F,  !- Component Name 1
  Perimeter_mid_ZN_1 WUC 0.0785gpm 140F Inlet Water Node, !- Component Inlet Node Name 1
  Perimeter_mid_ZN_1 WUC 0.0785gpm 140F Outlet Water Node; !- Component Outlet Node Name 1

WaterUse:Connections,
  Perimeter_mid_ZN_1 WUC 0.0785gpm 140F,  !- Name
  Perimeter_mid_ZN_1 WUC 0.0785gpm 140F Inlet Water Node, !- Inlet Node Name
  Perimeter_mid_ZN_1 WUC 0.0785gpm 140F Outlet Water Node, !- Outlet Node Name
  ,                                       !- Supply Water Storage Tank Name
  ,                                       !- Reclamation Water Storage Tank Name
  ,                                       !- Hot Water Supply Temperature Schedule Name
  ,                                       !- Cold Water Supply Temperature Schedule Name
  None,                                   !- Drain Water Heat Exchanger Type
  Plant,                                  !- Drain Water Heat Exchanger Destination
  ,                                       !- Drain Water Heat Exchanger U-Factor Times Area {W/K}
  Perimeter_mid_ZN_1 Service Water Use 0.0785gpm 140F; !- Water Use Equipment Name 1

WaterUse:Equipment,
  Perimeter_mid_ZN_1 Service Water Use 0.0785gpm 140F, !- Name
  General,                                !- End-Use Subcategory
  4.95549666220865e-06,                   !- Peak Flow Rate {m3/s}
  NECB-A-Service Water Heating,           !- Flow Rate Fraction Schedule Name
  Mixed Water At Faucet Temp - 140F,      !- Target Temperature Schedule Name
  ,                                       !- Hot Water Supply Temperature Schedule Name
  ,                                       !- Cold Water Supply Temperature Schedule Name
  ALL_ST=Office open plan_FL=Building Story 2_SCH=A 3, !- Zone Name
  Fraction Sensible - 0.2,                !- Sensible Fraction Schedule Name
  Fraction Latent - 0.05;                 !- Latent Fraction Schedule Name

Branch,
  Main Service Water Loop Demand Branch 10, !- Name
  ,                                       !- Pressure Drop Curve Name
  WaterUse:Connections,                   !- Component Object Type 1
  Perimeter_mid_ZN_2 WUC 0.0497gpm 140F,  !- Component Name 1
  Perimeter_mid_ZN_2 WUC 0.0497gpm 140F Inlet Water Node, !- Component Inlet Node Name 1
  Perimeter_mid_ZN_2 WUC 0.0497gpm 140F Outlet Water Node; !- Component Outlet Node Name 1

WaterUse:Connections,
  Perimeter_mid_ZN_2 WUC 0.0497gpm 140F,  !- Name
  Perimeter_mid_ZN_2 WUC 0.0497gpm 140F Inlet Water Node, !- Inlet Node Name
  Perimeter_mid_ZN_2 WUC 0.0497gpm 140F Outlet Water Node, !- Outlet Node Name
  ,                                       !- Supply Water Storage Tank Name
  ,                                       !- Reclamation Water Storage Tank Name
  ,                                       !- Hot Water Supply Temperature Schedule Name
  ,                                       !- Cold Water Supply Temperature Schedule Name
  None,                                   !- Drain Water Heat Exchanger Type
  Plant,                                  !- Drain Water Heat Exchanger Destination
  ,                                       !- Drain Water Heat Exchanger U-Factor Times Area {W/K}
  Perimeter_mid_ZN_2 Service Water Use 0.0497gpm 140F; !- Water Use Equipment Name 1

WaterUse:Equipment,
  Perimeter_mid_ZN_2 Service Water Use 0.0497gpm 140F, !- Name
  General,                                !- End-Use Subcategory
  3.13723930224434e-06,                   !- Peak Flow Rate {m3/s}
  NECB-A-Service Water Heating,           !- Flow Rate Fraction Schedule Name
  Mixed Water At Faucet Temp - 140F,      !- Target Temperature Schedule Name
  ,                                       !- Hot Water Supply Temperature Schedule Name
  ,                                       !- Cold Water Supply Temperature Schedule Name
  ALL_ST=Office open plan_FL=Building Story 2_SCH=A 4, !- Zone Name
  Fraction Sensible - 0.2,                !- Sensible Fraction Schedule Name
  Fraction Latent - 0.05;                 !- Latent Fraction Schedule Name

Branch,
  Main Service Water Loop Demand Branch 11, !- Name
  ,                                       !- Pressure Drop Curve Name
  WaterUse:Connections,                   !- Component Object Type 1
  Perimeter_mid_ZN_3 WUC 0.0785gpm 140F,  !- Component Name 1
  Perimeter_mid_ZN_3 WUC 0.0785gpm 140F Inlet Water Node, !- Component Inlet Node Name 1
  Perimeter_mid_ZN_3 WUC 0.0785gpm 140F Outlet Water Node; !- Component Outlet Node Name 1

WaterUse:Connections,
  Perimeter_mid_ZN_3 WUC 0.0785gpm 140F,  !- Name
  Perimeter_mid_ZN_3 WUC 0.0785gpm 140F Inlet Water Node, !- Inlet Node Name
  Perimeter_mid_ZN_3 WUC 0.0785gpm 140F Outlet Water Node, !- Outlet Node Name
  ,                                       !- Supply Water Storage Tank Name
  ,                                       !- Reclamation Water Storage Tank Name
  ,                                       !- Hot Water Supply Temperature Schedule Name
  ,                                       !- Cold Water Supply Temperature Schedule Name
  None,                                   !- Drain Water Heat Exchanger Type
  Plant,                                  !- Drain Water Heat Exchanger Destination
  ,                                       !- Drain Water Heat Exchanger U-Factor Times Area {W/K}
  Perimeter_mid_ZN_3 Service Water Use 0.0785gpm 140F; !- Water Use Equipment Name 1

WaterUse:Equipment,
  Perimeter_mid_ZN_3 Service Water Use 0.0785gpm 140F, !- Name
  General,                                !- End-Use Subcategory
  4.95549666220865e-06,                   !- Peak Flow Rate {m3/s}
  NECB-A-Service Water Heating,           !- Flow Rate Fraction Schedule Name
  Mixed Water At Faucet Temp - 140F,      !- Target Temperature Schedule Name
  ,                                       !- Hot Water Supply Temperature Schedule Name
  ,                                       !- Cold Water Supply Temperature Schedule Name
  ALL_ST=Office open plan_FL=Building Story 2_SCH=A 2, !- Zone Name
  Fraction Sensible - 0.2,                !- Sensible Fraction Schedule Name
  Fraction Latent - 0.05;                 !- Latent Fraction Schedule Name

Branch,
  Main Service Water Loop Demand Branch 12, !- Name
  ,                                       !- Pressure Drop Curve Name
  WaterUse:Connections,                   !- Component Object Type 1
  Perimeter_mid_ZN_4 WUC 0.0497gpm 140F,  !- Component Name 1
  Perimeter_mid_ZN_4 WUC 0.0497gpm 140F Inlet Water Node, !- Component Inlet Node Name 1
  Perimeter_mid_ZN_4 WUC 0.0497gpm 140F Outlet Water Node; !- Component Outlet Node Name 1

WaterUse:Connections,
  Perimeter_mid_ZN_4 WUC 0.0497gpm 140F,  !- Name
  Perimeter_mid_ZN_4 WUC 0.0497gpm 140F Inlet Water Node, !- Inlet Node Name
  Perimeter_mid_ZN_4 WUC 0.0497gpm 140F Outlet Water Node, !- Outlet Node Name
  ,                                       !- Supply Water Storage Tank Name
  ,                                       !- Reclamation Water Storage Tank Name
  ,                                       !- Hot Water Supply Temperature Schedule Name
  ,                                       !- Cold Water Supply Temperature Schedule Name
  None,                                   !- Drain Water Heat Exchanger Type
  Plant,                                  !- Drain Water Heat Exchanger Destination
  ,                                       !- Drain Water Heat Exchanger U-Factor Times Area {W/K}
  Perimeter_mid_ZN_4 Service Water Use 0.0497gpm 140F; !- Water Use Equipment Name 1

WaterUse:Equipment,
  Perimeter_mid_ZN_4 Service Water Use 0.0497gpm 140F, !- Name
  General,                                !- End-Use Subcategory
  3.13703351416286e-06,                   !- Peak Flow Rate {m3/s}
  NECB-A-Service Water Heating,           !- Flow Rate Fraction Schedule Name
  Mixed Water At Faucet Temp - 140F,      !- Target Temperature Schedule Name
  ,                                       !- Hot Water Supply Temperature Schedule Name
  ,                                       !- Cold Water Supply Temperature Schedule Name
  ALL_ST=Office open plan_FL=Building Story 2_SCH=A 1, !- Zone Name
  Fraction Sensible - 0.2,                !- Sensible Fraction Schedule Name
  Fraction Latent - 0.05;                 !- Latent Fraction Schedule Name

Branch,
  Main Service Water Loop Demand Branch 13, !- Name
  ,                                       !- Pressure Drop Curve Name
  WaterUse:Connections,                   !- Component Object Type 1
  Perimeter_top_ZN_1 WUC 0.0785gpm 140F,  !- Component Name 1
  Perimeter_top_ZN_1 WUC 0.0785gpm 140F Inlet Water Node, !- Component Inlet Node Name 1
  Perimeter_top_ZN_1 WUC 0.0785gpm 140F Outlet Water Node; !- Component Outlet Node Name 1

WaterUse:Connections,
  Perimeter_top_ZN_1 WUC 0.0785gpm 140F,  !- Name
  Perimeter_top_ZN_1 WUC 0.0785gpm 140F Inlet Water Node, !- Inlet Node Name
  Perimeter_top_ZN_1 WUC 0.0785gpm 140F Outlet Water Node, !- Outlet Node Name
  ,                                       !- Supply Water Storage Tank Name
  ,                                       !- Reclamation Water Storage Tank Name
  ,                                       !- Hot Water Supply Temperature Schedule Name
  ,                                       !- Cold Water Supply Temperature Schedule Name
  None,                                   !- Drain Water Heat Exchanger Type
  Plant,                                  !- Drain Water Heat Exchanger Destination
  ,                                       !- Drain Water Heat Exchanger U-Factor Times Area {W/K}
  Perimeter_top_ZN_1 Service Water Use 0.0785gpm 140F; !- Water Use Equipment Name 1

WaterUse:Equipment,
  Perimeter_top_ZN_1 Service Water Use 0.0785gpm 140F, !- Name
  General,                                !- End-Use Subcategory
  4.95549666220865e-06,                   !- Peak Flow Rate {m3/s}
  NECB-A-Service Water Heating,           !- Flow Rate Fraction Schedule Name
  Mixed Water At Faucet Temp - 140F,      !- Target Temperature Schedule Name
  ,                                       !- Hot Water Supply Temperature Schedule Name
  ,                                       !- Cold Water Supply Temperature Schedule Name
  ALL_ST=Office open plan_FL=Building Story 3_SCH=A, !- Zone Name
  Fraction Sensible - 0.2,                !- Sensible Fraction Schedule Name
  Fraction Latent - 0.05;                 !- Latent Fraction Schedule Name

Branch,
  Main Service Water Loop Demand Branch 14, !- Name
  ,                                       !- Pressure Drop Curve Name
  WaterUse:Connections,                   !- Component Object Type 1
  Perimeter_top_ZN_2 WUC 0.0497gpm 140F,  !- Component Name 1
  Perimeter_top_ZN_2 WUC 0.0497gpm 140F Inlet Water Node, !- Component Inlet Node Name 1
  Perimeter_top_ZN_2 WUC 0.0497gpm 140F Outlet Water Node; !- Component Outlet Node Name 1

WaterUse:Connections,
  Perimeter_top_ZN_2 WUC 0.0497gpm 140F,  !- Name
  Perimeter_top_ZN_2 WUC 0.0497gpm 140F Inlet Water Node, !- Inlet Node Name
  Perimeter_top_ZN_2 WUC 0.0497gpm 140F Outlet Water Node, !- Outlet Node Name
  ,                                       !- Supply Water Storage Tank Name
  ,                                       !- Reclamation Water Storage Tank Name
  ,                                       !- Hot Water Supply Temperature Schedule Name
  ,                                       !- Cold Water Supply Temperature Schedule Name
  None,                                   !- Drain Water Heat Exchanger Type
  Plant,                                  !- Drain Water Heat Exchanger Destination
  ,                                       !- Drain Water Heat Exchanger U-Factor Times Area {W/K}
  Perimeter_top_ZN_2 Service Water Use 0.0497gpm 140F; !- Water Use Equipment Name 1

WaterUse:Equipment,
  Perimeter_top_ZN_2 Service Water Use 0.0497gpm 140F, !- Name
  General,                                !- End-Use Subcategory
  3.13723930224434e-06,                   !- Peak Flow Rate {m3/s}
  NECB-A-Service Water Heating,           !- Flow Rate Fraction Schedule Name
  Mixed Water At Faucet Temp - 140F,      !- Target Temperature Schedule Name
  ,                                       !- Hot Water Supply Temperature Schedule Name
  ,                                       !- Cold Water Supply Temperature Schedule Name
  ALL_ST=Office open plan_FL=Building Story 3_SCH=A 1, !- Zone Name
  Fraction Sensible - 0.2,                !- Sensible Fraction Schedule Name
  Fraction Latent - 0.05;                 !- Latent Fraction Schedule Name

Branch,
  Main Service Water Loop Demand Branch 15, !- Name
  ,                                       !- Pressure Drop Curve Name
  WaterUse:Connections,                   !- Component Object Type 1
  Perimeter_top_ZN_3 WUC 0.0785gpm 140F,  !- Component Name 1
  Perimeter_top_ZN_3 WUC 0.0785gpm 140F Inlet Water Node, !- Component Inlet Node Name 1
  Perimeter_top_ZN_3 WUC 0.0785gpm 140F Outlet Water Node; !- Component Outlet Node Name 1

WaterUse:Connections,
  Perimeter_top_ZN_3 WUC 0.0785gpm 140F,  !- Name
  Perimeter_top_ZN_3 WUC 0.0785gpm 140F Inlet Water Node, !- Inlet Node Name
  Perimeter_top_ZN_3 WUC 0.0785gpm 140F Outlet Water Node, !- Outlet Node Name
  ,                                       !- Supply Water Storage Tank Name
  ,                                       !- Reclamation Water Storage Tank Name
  ,                                       !- Hot Water Supply Temperature Schedule Name
  ,                                       !- Cold Water Supply Temperature Schedule Name
  None,                                   !- Drain Water Heat Exchanger Type
  Plant,                                  !- Drain Water Heat Exchanger Destination
  ,                                       !- Drain Water Heat Exchanger U-Factor Times Area {W/K}
  Perimeter_top_ZN_3 Service Water Use 0.0785gpm 140F; !- Water Use Equipment Name 1

WaterUse:Equipment,
  Perimeter_top_ZN_3 Service Water Use 0.0785gpm 140F, !- Name
  General,                                !- End-Use Subcategory
  4.95549666220865e-06,                   !- Peak Flow Rate {m3/s}
  NECB-A-Service Water Heating,           !- Flow Rate Fraction Schedule Name
  Mixed Water At Faucet Temp - 140F,      !- Target Temperature Schedule Name
  ,                                       !- Hot Water Supply Temperature Schedule Name
  ,                                       !- Cold Water Supply Temperature Schedule Name
  ALL_ST=Office open plan_FL=Building Story 3_SCH=A 3, !- Zone Name
  Fraction Sensible - 0.2,                !- Sensible Fraction Schedule Name
  Fraction Latent - 0.05;                 !- Latent Fraction Schedule Name

Branch,
  Main Service Water Loop Demand Branch 16, !- Name
  ,                                       !- Pressure Drop Curve Name
  WaterUse:Connections,                   !- Component Object Type 1
  Perimeter_top_ZN_4 WUC 0.0497gpm 140F,  !- Component Name 1
  Perimeter_top_ZN_4 WUC 0.0497gpm 140F Inlet Water Node, !- Component Inlet Node Name 1
  Perimeter_top_ZN_4 WUC 0.0497gpm 140F Outlet Water Node; !- Component Outlet Node Name 1

WaterUse:Connections,
  Perimeter_top_ZN_4 WUC 0.0497gpm 140F,  !- Name
  Perimeter_top_ZN_4 WUC 0.0497gpm 140F Inlet Water Node, !- Inlet Node Name
  Perimeter_top_ZN_4 WUC 0.0497gpm 140F Outlet Water Node, !- Outlet Node Name
  ,                                       !- Supply Water Storage Tank Name
  ,                                       !- Reclamation Water Storage Tank Name
  ,                                       !- Hot Water Supply Temperature Schedule Name
  ,                                       !- Cold Water Supply Temperature Schedule Name
  None,                                   !- Drain Water Heat Exchanger Type
  Plant,                                  !- Drain Water Heat Exchanger Destination
  ,                                       !- Drain Water Heat Exchanger U-Factor Times Area {W/K}
  Perimeter_top_ZN_4 Service Water Use 0.0497gpm 140F; !- Water Use Equipment Name 1

WaterUse:Equipment,
  Perimeter_top_ZN_4 Service Water Use 0.0497gpm 140F, !- Name
  General,                                !- End-Use Subcategory
  3.13703351416286e-06,                   !- Peak Flow Rate {m3/s}
  NECB-A-Service Water Heating,           !- Flow Rate Fraction Schedule Name
  Mixed Water At Faucet Temp - 140F,      !- Target Temperature Schedule Name
  ,                                       !- Hot Water Supply Temperature Schedule Name
  ,                                       !- Cold Water Supply Temperature Schedule Name
  ALL_ST=Office open plan_FL=Building Story 3_SCH=A 4, !- Zone Name
  Fraction Sensible - 0.2,                !- Sensible Fraction Schedule Name
  Fraction Latent - 0.05;                 !- Latent Fraction Schedule Name

Branch,
  Main Service Water Loop Demand Bypass Branch, !- Name
  ,                                       !- Pressure Drop Curve Name
  Pipe:Adiabatic,                         !- Component Object Type 1
  Main Service Water Loop Demand Bypass Pipe, !- Component Name 1
  Main Service Water Loop Demand Bypass Pipe Inlet Node, !- Component Inlet Node Name 1
  Main Service Water Loop Demand Bypass Pipe Outlet Node; !- Component Outlet Node Name 1

Pipe:Adiabatic,
  Main Service Water Loop Demand Bypass Pipe, !- Name
  Main Service Water Loop Demand Bypass Pipe Inlet Node, !- Inlet Node Name
  Main Service Water Loop Demand Bypass Pipe Outlet Node; !- Outlet Node Name

Branch,
  Main Service Water Loop Demand Outlet Branch, !- Name
  ,                                       !- Pressure Drop Curve Name
  Pipe:Adiabatic,                         !- Component Object Type 1
  Pipe Adiabatic 8,                       !- Component Name 1
  Pipe Adiabatic 8 Inlet Water Node,      !- Component Inlet Node Name 1
  Main Service Water Loop Demand Outlet Node; !- Component Outlet Node Name 1

Pipe:Adiabatic,
  Pipe Adiabatic 8,                       !- Name
  Pipe Adiabatic 8 Inlet Water Node,      !- Inlet Node Name
  Main Service Water Loop Demand Outlet Node; !- Outlet Node Name

PlantEquipmentOperationSchemes,
  Main Service Water Loop Operation Schemes, !- Name
  PlantEquipmentOperation:HeatingLoad,    !- Control Scheme Object Type 1
  Main Service Water Loop Heating Operation Scheme, !- Control Scheme Name 1
  Always On Discrete;                     !- Control Scheme Schedule Name 1

PlantEquipmentOperation:HeatingLoad,
  Main Service Water Loop Heating Operation Scheme, !- Name
  0,                                      !- Load Range Lower Limit 1 {W}
  1000000000,                             !- Load Range Upper Limit 1 {W}
  Main Service Water Loop Heating Equipment List; !- Range Equipment List Name 1

PlantEquipmentList,
  Main Service Water Loop Heating Equipment List, !- Name
  WaterHeater:Mixed,                      !- Equipment Object Type 1
  125gal Electricity Water Heater - 84kBtu/hr 1 Therm Eff; !- Equipment Name 1

OutputControl:ReportingTolerances,
  1,                                      !- Tolerance for Time Heating Setpoint Not Met {deltaC}
  1;                                      !- Tolerance for Time Cooling Setpoint Not Met {deltaC}

Site:Location,
  Calgary Intl AP_AB_CAN,                 !- Name
  51.114,                                 !- Latitude {deg}
  -114.02,                                !- Longitude {deg}
  -7,                                     !- Time Zone {hr}
  1084.1;                                 !- Elevation {m}

Site:GroundTemperature:BuildingSurface,
  19.527,                                 !- January Ground Temperature {C}
  19.502,                                 !- February Ground Temperature {C}
  19.536,                                 !- March Ground Temperature {C}
  19.598,                                 !- April Ground Temperature {C}
  20.002,                                 !- May Ground Temperature {C}
  21.64,                                  !- June Ground Temperature {C}
  22.225,                                 !- July Ground Temperature {C}
  22.375,                                 !- August Ground Temperature {C}
  21.449,                                 !- September Ground Temperature {C}
  20.121,                                 !- October Ground Temperature {C}
  19.802,                                 !- November Ground Temperature {C}
  19.633;                                 !- December Ground Temperature {C}

Site:GroundTemperature:Deep,
  1.8,                                    !- January Deep Ground Temperature {C}
  0,                                      !- February Deep Ground Temperature {C}
  -0.3,                                   !- March Deep Ground Temperature {C}
  0.2,                                    !- April Deep Ground Temperature {C}
  2.8,                                    !- May Deep Ground Temperature {C}
  5.6,                                    !- June Deep Ground Temperature {C}
  8.1,                                    !- July Deep Ground Temperature {C}
  9.9,                                    !- August Deep Ground Temperature {C}
  10.3,                                   !- September Deep Ground Temperature {C}
  9.3,                                    !- October Deep Ground Temperature {C}
  7.1,                                    !- November Deep Ground Temperature {C}
  4.4;                                    !- December Deep Ground Temperature {C}

Site:GroundTemperature:FCfactorMethod,
  5.5,                                    !- January Ground Temperature {C}
  -2,                                     !- February Ground Temperature {C}
  -4.4,                                   !- March Ground Temperature {C}
  -6.3,                                   !- April Ground Temperature {C}
  -6.3,                                   !- May Ground Temperature {C}
  -0.3,                                   !- June Ground Temperature {C}
  4.7,                                    !- July Ground Temperature {C}
  10.2,                                   !- August Ground Temperature {C}
  13.8,                                   !- September Ground Temperature {C}
  17,                                     !- October Ground Temperature {C}
  16.6,                                   !- November Ground Temperature {C}
  11.5;                                   !- December Ground Temperature {C}

Site:GroundTemperature:Shallow,
  -4.6,                                   !- January Surface Ground Temperature {C}
  -5.5,                                   !- February Surface Ground Temperature {C}
  -3.9,                                   !- March Surface Ground Temperature {C}
  -1.2,                                   !- April Surface Ground Temperature {C}
  5.6,                                    !- May Surface Ground Temperature {C}
  10.9,                                   !- June Surface Ground Temperature {C}
  14.5,                                   !- July Surface Ground Temperature {C}
  15.6,                                   !- August Surface Ground Temperature {C}
  13.7,                                   !- September Surface Ground Temperature {C}
  9.6,                                    !- October Surface Ground Temperature {C}
  4.1,                                    !- November Surface Ground Temperature {C}
  -1;                                     !- December Surface Ground Temperature {C}

Site:WaterMainsTemperature,
  Correlation,                            !- Calculation Method
  ,                                       !- Temperature Schedule Name
  5,                                      !- Annual Average Outdoor Air Temperature {C}
  23.3;                                   !- Maximum Difference In Monthly Average Outdoor Air Temperatures {deltaC}

SizingPeriod:DesignDay,
  Calgary Intl AP Ann Clg .4% Condns DB=>MWB, !- Name
  7,                                      !- Month
  21,                                     !- Day of Month
  SummerDesignDay,                        !- Day Type
  28.5,                                   !- Maximum Dry-Bulb Temperature {C}
  12.1,                                   !- Daily Dry-Bulb Temperature Range {deltaC}
  DefaultMultipliers,                     !- Dry-Bulb Temperature Range Modifier Type
  ,                                       !- Dry-Bulb Temperature Range Modifier Day Schedule Name
  Wetbulb,                                !- Humidity Condition Type
  16.1,                                   !- Wetbulb or DewPoint at Maximum Dry-Bulb {C}
  ,                                       !- Humidity Condition Day Schedule Name
  ,                                       !- Humidity Ratio at Maximum Dry-Bulb {kgWater/kgDryAir}
  ,                                       !- Enthalpy at Maximum Dry-Bulb {J/kg}
  ,                                       !- Daily Wet-Bulb Temperature Range {deltaC}
  88961,                                  !- Barometric Pressure {Pa}
  4.5,                                    !- Wind Speed {m/s}
  160,                                    !- Wind Direction {deg}
  No,                                     !- Rain Indicator
  No,                                     !- Snow Indicator
  No,                                     !- Daylight Saving Time Indicator
  ASHRAETau,                              !- Solar Model Indicator
  ,                                       !- Beam Solar Day Schedule Name
  ,                                       !- Diffuse Solar Day Schedule Name
  0.339,                                  !- ASHRAE Clear Sky Optical Depth for Beam Irradiance (taub) {dimensionless}
  2.421,                                  !- ASHRAE Clear Sky Optical Depth for Diffuse Irradiance (taud) {dimensionless}
  ,                                       !- Sky Clearness
  ,                                       !- Maximum Number Warmup Days
  FullResetAtBeginEnvironment;            !- Begin Environment Reset Mode

SizingPeriod:DesignDay,
  Calgary Intl AP Ann Clg .4% Condns WB=>MDB, !- Name
  7,                                      !- Month
  21,                                     !- Day of Month
  SummerDesignDay,                        !- Day Type
  25.3,                                   !- Maximum Dry-Bulb Temperature {C}
  12.1,                                   !- Daily Dry-Bulb Temperature Range {deltaC}
  DefaultMultipliers,                     !- Dry-Bulb Temperature Range Modifier Type
  ,                                       !- Dry-Bulb Temperature Range Modifier Day Schedule Name
  Wetbulb,                                !- Humidity Condition Type
  17.8,                                   !- Wetbulb or DewPoint at Maximum Dry-Bulb {C}
  ,                                       !- Humidity Condition Day Schedule Name
  ,                                       !- Humidity Ratio at Maximum Dry-Bulb {kgWater/kgDryAir}
  ,                                       !- Enthalpy at Maximum Dry-Bulb {J/kg}
  ,                                       !- Daily Wet-Bulb Temperature Range {deltaC}
  88961,                                  !- Barometric Pressure {Pa}
  4.5,                                    !- Wind Speed {m/s}
  160,                                    !- Wind Direction {deg}
  No,                                     !- Rain Indicator
  No,                                     !- Snow Indicator
  No,                                     !- Daylight Saving Time Indicator
  ASHRAETau,                              !- Solar Model Indicator
  ,                                       !- Beam Solar Day Schedule Name
  ,                                       !- Diffuse Solar Day Schedule Name
  0.339,                                  !- ASHRAE Clear Sky Optical Depth for Beam Irradiance (taub) {dimensionless}
  2.421,                                  !- ASHRAE Clear Sky Optical Depth for Diffuse Irradiance (taud) {dimensionless}
  ,                                       !- Sky Clearness
  ,                                       !- Maximum Number Warmup Days
  FullResetAtBeginEnvironment;            !- Begin Environment Reset Mode

SizingPeriod:DesignDay,
  Calgary Intl AP Ann Htg 99.6% Condns DB, !- Name
  1,                                      !- Month
  21,                                     !- Day of Month
  WinterDesignDay,                        !- Day Type
  -28.5,                                  !- Maximum Dry-Bulb Temperature {C}
  0,                                      !- Daily Dry-Bulb Temperature Range {deltaC}
  DefaultMultipliers,                     !- Dry-Bulb Temperature Range Modifier Type
  ,                                       !- Dry-Bulb Temperature Range Modifier Day Schedule Name
  Wetbulb,                                !- Humidity Condition Type
  -28.5,                                  !- Wetbulb or DewPoint at Maximum Dry-Bulb {C}
  ,                                       !- Humidity Condition Day Schedule Name
  ,                                       !- Humidity Ratio at Maximum Dry-Bulb {kgWater/kgDryAir}
  ,                                       !- Enthalpy at Maximum Dry-Bulb {J/kg}
  ,                                       !- Daily Wet-Bulb Temperature Range {deltaC}
  88961,                                  !- Barometric Pressure {Pa}
  2.9,                                    !- Wind Speed {m/s}
  200,                                    !- Wind Direction {deg}
  No,                                     !- Rain Indicator
  No,                                     !- Snow Indicator
  No,                                     !- Daylight Saving Time Indicator
  ASHRAEClearSky,                         !- Solar Model Indicator
  ,                                       !- Beam Solar Day Schedule Name
  ,                                       !- Diffuse Solar Day Schedule Name
  ,                                       !- ASHRAE Clear Sky Optical Depth for Beam Irradiance (taub) {dimensionless}
  ,                                       !- ASHRAE Clear Sky Optical Depth for Diffuse Irradiance (taud) {dimensionless}
  0,                                      !- Sky Clearness
  ,                                       !- Maximum Number Warmup Days
  FullResetAtBeginEnvironment;            !- Begin Environment Reset Mode

Foundation:Kiva,
  Bldg Kiva Foundation,                   !- Name
  ,                                       !- Initial Indoor Air Temperature {C}
  ,                                       !- Interior Horizontal Insulation Material Name
  ,                                       !- Interior Horizontal Insulation Depth {m}
  ,                                       !- Interior Horizontal Insulation Width {m}
  ,                                       !- Interior Vertical Insulation Material Name
  ,                                       !- Interior Vertical Insulation Depth {m}
  ,                                       !- Exterior Horizontal Insulation Material Name
  ,                                       !- Exterior Horizontal Insulation Depth {m}
  ,                                       !- Exterior Horizontal Insulation Width {m}
  ,                                       !- Exterior Vertical Insulation Material Name
  ,                                       !- Exterior Vertical Insulation Depth {m}
  0,                                      !- Wall Height Above Grade {m}
  0;                                      !- Wall Depth Below Slab {m}

Foundation:Kiva:Settings,
  1.73,                                   !- Soil Conductivity {W/m-K}
  1842,                                   !- Soil Density {kg/m3}
  419,                                    !- Soil Specific Heat {J/kg-K}
  0.9,                                    !- Ground Solar Absorptivity {dimensionless}
  0.9,                                    !- Ground Thermal Absorptivity {dimensionless}
  0.03,                                   !- Ground Surface Roughness {m}
  40,                                     !- Far-Field Width {m}
  Autoselect,                             !- Deep-Ground Boundary Condition
  Autocalculate,                          !- Deep-Ground Depth {m}
  0.02,                                   !- Minimum Cell Dimension {m}
  1.5,                                    !- Maximum Cell Growth Coefficient {dimensionless}
  Hourly;                                 !- Simulation Timestep

Curve:Biquadratic,
  Curve Biquadratic 1,                    !- Name
  0.8406506803,                           !- Coefficient1 Constant
  -8.3433e-05,                            !- Coefficient2 x
  -6.83822e-05,                           !- Coefficient3 x**2
  0.0234244981,                           !- Coefficient4 y
  0.000176366,                            !- Coefficient5 y**2
  -9.01777e-05,                           !- Coefficient6 x*y
  17.78,                                  !- Minimum Value of x {BasedOnField A2}
  23.33,                                  !- Maximum Value of x {BasedOnField A2}
  -30.56,                                 !- Minimum Value of y {BasedOnField A3}
  17.22;                                  !- Maximum Value of y {BasedOnField A3}

Curve:Biquadratic,
  Curve Biquadratic 10,                   !- Name
  0.9172082199,                           !- Coefficient1 Constant
  -0.0116036212,                          !- Coefficient2 x
  0.0010074804,                           !- Coefficient3 x**2
  -0.0089288423,                          !- Coefficient4 y
  0.0009349133,                           !- Coefficient5 y**2
  -0.0009326244,                          !- Coefficient6 x*y
  17.78,                                  !- Minimum Value of x {BasedOnField A2}
  23.33,                                  !- Maximum Value of x {BasedOnField A2}
  -30.56,                                 !- Minimum Value of y {BasedOnField A3}
  17.22;                                  !- Maximum Value of y {BasedOnField A3}

Curve:Biquadratic,
  Curve Biquadratic 11,                   !- Name
  1.6253449506,                           !- Coefficient1 Constant
  -0.0786550838,                          !- Coefficient2 x
  0.0030679776,                           !- Coefficient3 x**2
  0.0008002088,                           !- Coefficient4 y
  -3.5406e-05,                            !- Coefficient5 y**2
  -0.0003534409,                          !- Coefficient6 x*y
  13.89,                                  !- Minimum Value of x {BasedOnField A2}
  22.22,                                  !- Maximum Value of x {BasedOnField A2}
  12.78,                                  !- Minimum Value of y {BasedOnField A3}
  51.67;                                  !- Maximum Value of y {BasedOnField A3}

Curve:Biquadratic,
  Curve Biquadratic 12,                   !- Name
  1.4240389306,                           !- Coefficient1 Constant
  -0.0593310687,                          !- Coefficient2 x
  0.002606807,                            !- Coefficient3 x**2
  0.0008867551,                           !- Coefficient4 y
  -3.69191e-05,                           !- Coefficient5 y**2
  -0.0003552805,                          !- Coefficient6 x*y
  13.89,                                  !- Minimum Value of x {BasedOnField A2}
  22.22,                                  !- Maximum Value of x {BasedOnField A2}
  12.78,                                  !- Minimum Value of y {BasedOnField A3}
  51.67;                                  !- Maximum Value of y {BasedOnField A3}

Curve:Biquadratic,
  Curve Biquadratic 2,                    !- Name
  0.9172082199,                           !- Coefficient1 Constant
  -0.0116036212,                          !- Coefficient2 x
  0.0010074804,                           !- Coefficient3 x**2
  -0.0089288423,                          !- Coefficient4 y
  0.0009349133,                           !- Coefficient5 y**2
  -0.0009326244,                          !- Coefficient6 x*y
  17.78,                                  !- Minimum Value of x {BasedOnField A2}
  23.33,                                  !- Maximum Value of x {BasedOnField A2}
  -30.56,                                 !- Minimum Value of y {BasedOnField A3}
  17.22;                                  !- Maximum Value of y {BasedOnField A3}

Curve:Biquadratic,
  Curve Biquadratic 3,                    !- Name
  1.6253449506,                           !- Coefficient1 Constant
  -0.0786550838,                          !- Coefficient2 x
  0.0030679776,                           !- Coefficient3 x**2
  0.0008002088,                           !- Coefficient4 y
  -3.5406e-05,                            !- Coefficient5 y**2
  -0.0003534409,                          !- Coefficient6 x*y
  13.89,                                  !- Minimum Value of x {BasedOnField A2}
  22.22,                                  !- Maximum Value of x {BasedOnField A2}
  12.78,                                  !- Minimum Value of y {BasedOnField A3}
  51.67;                                  !- Maximum Value of y {BasedOnField A3}

Curve:Biquadratic,
  Curve Biquadratic 4,                    !- Name
  1.4240389306,                           !- Coefficient1 Constant
  -0.0593310687,                          !- Coefficient2 x
  0.002606807,                            !- Coefficient3 x**2
  0.0008867551,                           !- Coefficient4 y
  -3.69191e-05,                           !- Coefficient5 y**2
  -0.0003552805,                          !- Coefficient6 x*y
  13.89,                                  !- Minimum Value of x {BasedOnField A2}
  22.22,                                  !- Maximum Value of x {BasedOnField A2}
  12.78,                                  !- Minimum Value of y {BasedOnField A3}
  51.67;                                  !- Maximum Value of y {BasedOnField A3}

Curve:Biquadratic,
  Curve Biquadratic 5,                    !- Name
  0.8406506803,                           !- Coefficient1 Constant
  -8.3433e-05,                            !- Coefficient2 x
  -6.83822e-05,                           !- Coefficient3 x**2
  0.0234244981,                           !- Coefficient4 y
  0.000176366,                            !- Coefficient5 y**2
  -9.01777e-05,                           !- Coefficient6 x*y
  17.78,                                  !- Minimum Value of x {BasedOnField A2}
  23.33,                                  !- Maximum Value of x {BasedOnField A2}
  -30.56,                                 !- Minimum Value of y {BasedOnField A3}
  17.22;                                  !- Maximum Value of y {BasedOnField A3}

Curve:Biquadratic,
  Curve Biquadratic 6,                    !- Name
  0.9172082199,                           !- Coefficient1 Constant
  -0.0116036212,                          !- Coefficient2 x
  0.0010074804,                           !- Coefficient3 x**2
  -0.0089288423,                          !- Coefficient4 y
  0.0009349133,                           !- Coefficient5 y**2
  -0.0009326244,                          !- Coefficient6 x*y
  17.78,                                  !- Minimum Value of x {BasedOnField A2}
  23.33,                                  !- Maximum Value of x {BasedOnField A2}
  -30.56,                                 !- Minimum Value of y {BasedOnField A3}
  17.22;                                  !- Maximum Value of y {BasedOnField A3}

Curve:Biquadratic,
  Curve Biquadratic 7,                    !- Name
  1.6253449506,                           !- Coefficient1 Constant
  -0.0786550838,                          !- Coefficient2 x
  0.0030679776,                           !- Coefficient3 x**2
  0.0008002088,                           !- Coefficient4 y
  -3.5406e-05,                            !- Coefficient5 y**2
  -0.0003534409,                          !- Coefficient6 x*y
  13.89,                                  !- Minimum Value of x {BasedOnField A2}
  22.22,                                  !- Maximum Value of x {BasedOnField A2}
  12.78,                                  !- Minimum Value of y {BasedOnField A3}
  51.67;                                  !- Maximum Value of y {BasedOnField A3}

Curve:Biquadratic,
  Curve Biquadratic 8,                    !- Name
  1.4240389306,                           !- Coefficient1 Constant
  -0.0593310687,                          !- Coefficient2 x
  0.002606807,                            !- Coefficient3 x**2
  0.0008867551,                           !- Coefficient4 y
  -3.69191e-05,                           !- Coefficient5 y**2
  -0.0003552805,                          !- Coefficient6 x*y
  13.89,                                  !- Minimum Value of x {BasedOnField A2}
  22.22,                                  !- Maximum Value of x {BasedOnField A2}
  12.78,                                  !- Minimum Value of y {BasedOnField A3}
  51.67;                                  !- Maximum Value of y {BasedOnField A3}

Curve:Biquadratic,
  Curve Biquadratic 9,                    !- Name
  0.8406506803,                           !- Coefficient1 Constant
  -8.3433e-05,                            !- Coefficient2 x
  -6.83822e-05,                           !- Coefficient3 x**2
  0.0234244981,                           !- Coefficient4 y
  0.000176366,                            !- Coefficient5 y**2
  -9.01777e-05,                           !- Coefficient6 x*y
  17.78,                                  !- Minimum Value of x {BasedOnField A2}
  23.33,                                  !- Maximum Value of x {BasedOnField A2}
  -30.56,                                 !- Minimum Value of y {BasedOnField A3}
  17.22;                                  !- Maximum Value of y {BasedOnField A3}

Curve:Cubic,
  VarVolFan-AFBIFanCurve-NECB2011-FPLR,   !- Name
  -2.4176,                                !- Coefficient1 Constant
  9.5874,                                 !- Coefficient2 x
  -11.559,                                !- Coefficient3 x**2
  5.4009,                                 !- Coefficient4 x**3
  0.68,                                   !- Minimum Value of x {BasedOnField A2}
  1;                                      !- Maximum Value of x {BasedOnField A2}

Curve:Cubic,
  VarVolFan-AFBIInletVanes-NECB2011-FPLR, !- Name
  -4.1457,                                !- Coefficient1 Constant
  16.803,                                 !- Coefficient2 x
  -19.471,                                !- Coefficient3 x**2
  7.8488,                                 !- Coefficient4 x**3
  0.5,                                    !- Minimum Value of x {BasedOnField A2}
  1;                                      !- Maximum Value of x {BasedOnField A2}

Curve:Quadratic,
  Curve Quadratic 1,                      !- Name
  0.85,                                   !- Coefficient1 Constant
  0.15,                                   !- Coefficient2 x
  0,                                      !- Coefficient3 x**2
  0,                                      !- Minimum Value of x {BasedOnField A2}
  1;                                      !- Maximum Value of x {BasedOnField A2}

Curve:Quadratic,
  Curve Quadratic 10,                     !- Name
  0.85,                                   !- Coefficient1 Constant
  0.15,                                   !- Coefficient2 x
  0,                                      !- Coefficient3 x**2
  0,                                      !- Minimum Value of x {BasedOnField A2}
  1;                                      !- Maximum Value of x {BasedOnField A2}

Curve:Quadratic,
  Curve Quadratic 11,                     !- Name
  1,                                      !- Coefficient1 Constant
  0,                                      !- Coefficient2 x
  0,                                      !- Coefficient3 x**2
  0.5,                                    !- Minimum Value of x {BasedOnField A2}
  1.5;                                    !- Maximum Value of x {BasedOnField A2}

Curve:Quadratic,
  Curve Quadratic 12,                     !- Name
  1,                                      !- Coefficient1 Constant
  0,                                      !- Coefficient2 x
  0,                                      !- Coefficient3 x**2
  0.5,                                    !- Minimum Value of x {BasedOnField A2}
  1.5;                                    !- Maximum Value of x {BasedOnField A2}

Curve:Quadratic,
  Curve Quadratic 13,                     !- Name
  0.85,                                   !- Coefficient1 Constant
  0.15,                                   !- Coefficient2 x
  0,                                      !- Coefficient3 x**2
  0,                                      !- Minimum Value of x {BasedOnField A2}
  1;                                      !- Maximum Value of x {BasedOnField A2}

Curve:Quadratic,
  Curve Quadratic 14,                     !- Name
  1,                                      !- Coefficient1 Constant
  0,                                      !- Coefficient2 x
  0,                                      !- Coefficient3 x**2
  0.5,                                    !- Minimum Value of x {BasedOnField A2}
  1.5;                                    !- Maximum Value of x {BasedOnField A2}

Curve:Quadratic,
  Curve Quadratic 15,                     !- Name
  1,                                      !- Coefficient1 Constant
  0,                                      !- Coefficient2 x
  0,                                      !- Coefficient3 x**2
  0.5,                                    !- Minimum Value of x {BasedOnField A2}
  1.5;                                    !- Maximum Value of x {BasedOnField A2}

Curve:Quadratic,
  Curve Quadratic 16,                     !- Name
  0.85,                                   !- Coefficient1 Constant
  0.15,                                   !- Coefficient2 x
  0,                                      !- Coefficient3 x**2
  0,                                      !- Minimum Value of x {BasedOnField A2}
  1;                                      !- Maximum Value of x {BasedOnField A2}

Curve:Quadratic,
  Curve Quadratic 17,                     !- Name
  1,                                      !- Coefficient1 Constant
  0,                                      !- Coefficient2 x
  0,                                      !- Coefficient3 x**2
  0.5,                                    !- Minimum Value of x {BasedOnField A2}
  1.5;                                    !- Maximum Value of x {BasedOnField A2}

Curve:Quadratic,
  Curve Quadratic 18,                     !- Name
  1,                                      !- Coefficient1 Constant
  0,                                      !- Coefficient2 x
  0,                                      !- Coefficient3 x**2
  0.5,                                    !- Minimum Value of x {BasedOnField A2}
  1.5;                                    !- Maximum Value of x {BasedOnField A2}

Curve:Quadratic,
  Curve Quadratic 2,                      !- Name
  1,                                      !- Coefficient1 Constant
  0,                                      !- Coefficient2 x
  0,                                      !- Coefficient3 x**2
  0.5,                                    !- Minimum Value of x {BasedOnField A2}
  1.5;                                    !- Maximum Value of x {BasedOnField A2}

Curve:Quadratic,
  Curve Quadratic 3,                      !- Name
  1,                                      !- Coefficient1 Constant
  0,                                      !- Coefficient2 x
  0,                                      !- Coefficient3 x**2
  0.5,                                    !- Minimum Value of x {BasedOnField A2}
  1.5;                                    !- Maximum Value of x {BasedOnField A2}

Curve:Quadratic,
  Curve Quadratic 4,                      !- Name
  0.85,                                   !- Coefficient1 Constant
  0.15,                                   !- Coefficient2 x
  0,                                      !- Coefficient3 x**2
  0,                                      !- Minimum Value of x {BasedOnField A2}
  1;                                      !- Maximum Value of x {BasedOnField A2}

Curve:Quadratic,
  Curve Quadratic 5,                      !- Name
  1,                                      !- Coefficient1 Constant
  0,                                      !- Coefficient2 x
  0,                                      !- Coefficient3 x**2
  0.5,                                    !- Minimum Value of x {BasedOnField A2}
  1.5;                                    !- Maximum Value of x {BasedOnField A2}

Curve:Quadratic,
  Curve Quadratic 6,                      !- Name
  1,                                      !- Coefficient1 Constant
  0,                                      !- Coefficient2 x
  0,                                      !- Coefficient3 x**2
  0.5,                                    !- Minimum Value of x {BasedOnField A2}
  1.5;                                    !- Maximum Value of x {BasedOnField A2}

Curve:Quadratic,
  Curve Quadratic 7,                      !- Name
  0.85,                                   !- Coefficient1 Constant
  0.15,                                   !- Coefficient2 x
  0,                                      !- Coefficient3 x**2
  0,                                      !- Minimum Value of x {BasedOnField A2}
  1;                                      !- Maximum Value of x {BasedOnField A2}

Curve:Quadratic,
  Curve Quadratic 8,                      !- Name
  1,                                      !- Coefficient1 Constant
  0,                                      !- Coefficient2 x
  0,                                      !- Coefficient3 x**2
  0.5,                                    !- Minimum Value of x {BasedOnField A2}
  1.5;                                    !- Maximum Value of x {BasedOnField A2}

Curve:Quadratic,
  Curve Quadratic 9,                      !- Name
  1,                                      !- Coefficient1 Constant
  0,                                      !- Coefficient2 x
  0,                                      !- Coefficient3 x**2
  0.5,                                    !- Minimum Value of x {BasedOnField A2}
  1.5;                                    !- Maximum Value of x {BasedOnField A2}

EnergyManagementSystem:Sensor,
  OAT,                                    !- Name
  Environment,                            !- Output:Variable or Output:Meter Index Key Name
  Site Outdoor Air Drybulb Temperature;   !- Output:Variable or Output:Meter Name

EnergyManagementSystem:Sensor,
  OAT_1,                                  !- Name
  Environment,                            !- Output:Variable or Output:Meter Index Key Name
  Site Outdoor Air Drybulb Temperature;   !- Output:Variable or Output:Meter Name

EnergyManagementSystem:Sensor,
  OAT_2,                                  !- Name
  Environment,                            !- Output:Variable or Output:Meter Index Key Name
  Site Outdoor Air Drybulb Temperature;   !- Output:Variable or Output:Meter Name

EnergyManagementSystem:Actuator,
  ems_sys_6_mixed_shr_none_sc_ccashp_sh_ccashp_ssf_vv_zh_b_e_zc_none_srf_vv__1_ClgSch0, !- Name
  NECB-A-Thermostat Setpoint-Cooling,     !- Actuated Component Unique Name
  Schedule:Year,                          !- Actuated Component Type
  Schedule Value;                         !- Actuated Component Control Type

EnergyManagementSystem:Actuator,
  ems_sys_6_mixed_shr_none_sc_ccashp_sh_ccashp_ssf_vv_zh_b_e_zc_none_srf_vv__1_HtgSch0, !- Name
  NECB-A-Thermostat Setpoint-Heating,     !- Actuated Component Unique Name
  Schedule:Year,                          !- Actuated Component Type
  Schedule Value;                         !- Actuated Component Control Type

EnergyManagementSystem:Actuator,
  ems_sys_6_mixed_shr_none_sc_ccashp_sh_ccashp_ssf_vv_zh_b_e_zc_none_srf_vv__2_ClgSch0, !- Name
  NECB-A-Thermostat Setpoint-Cooling,     !- Actuated Component Unique Name
  Schedule:Year,                          !- Actuated Component Type
  Schedule Value;                         !- Actuated Component Control Type

EnergyManagementSystem:Actuator,
  ems_sys_6_mixed_shr_none_sc_ccashp_sh_ccashp_ssf_vv_zh_b_e_zc_none_srf_vv__2_HtgSch0, !- Name
  NECB-A-Thermostat Setpoint-Heating,     !- Actuated Component Unique Name
  Schedule:Year,                          !- Actuated Component Type
  Schedule Value;                         !- Actuated Component Control Type

EnergyManagementSystem:Actuator,
  ems_sys_6_mixed_shr_none_sc_ccashp_sh_ccashp_ssf_vv_zh_b_e_zc_none_srf_vv__ClgSch0, !- Name
  NECB-A-Thermostat Setpoint-Cooling,     !- Actuated Component Unique Name
  Schedule:Year,                          !- Actuated Component Type
  Schedule Value;                         !- Actuated Component Control Type

EnergyManagementSystem:Actuator,
  ems_sys_6_mixed_shr_none_sc_ccashp_sh_ccashp_ssf_vv_zh_b_e_zc_none_srf_vv__HtgSch0, !- Name
  NECB-A-Thermostat Setpoint-Heating,     !- Actuated Component Unique Name
  Schedule:Year,                          !- Actuated Component Type
  Schedule Value;                         !- Actuated Component Control Type

EnergyManagementSystem:Program,
  ems_sys_6_mixed_shr_none_sc_ccashp_sh_ccashp_ssf_vv_zh_b_e_zc_none_srf_vv__1_OptimumStartProg0, !- Name
  IF DaylightSavings==0 && DayOfWeek>1 && Hour==5 && OAT_1<23.9 && OAT_1>1.7, !- Program Line 1
  SET ems_sys_6_mixed_shr_none_sc_ccashp_sh_ccashp_ssf_vv_zh_b_e_zc_none_srf_vv__1_ClgSch0 = 29.4, !- Program Line 2
  SET ems_sys_6_mixed_shr_none_sc_ccashp_sh_ccashp_ssf_vv_zh_b_e_zc_none_srf_vv__1_HtgSch0 = 15.6, !- Program Line 3
  ELSEIF DaylightSavings==0 && DayOfWeek==1 && Hour==7 && OAT_1<23.9 && OAT_1>1.7, !- Program Line 4
  SET ems_sys_6_mixed_shr_none_sc_ccashp_sh_ccashp_ssf_vv_zh_b_e_zc_none_srf_vv__1_ClgSch0 = 29.4, !- Program Line 5
  SET ems_sys_6_mixed_shr_none_sc_ccashp_sh_ccashp_ssf_vv_zh_b_e_zc_none_srf_vv__1_HtgSch0 = 15.6, !- Program Line 6
  ELSEIF DaylightSavings==1 && DayOfWeek>1 && Hour==4 && OAT_1<23.9 && OAT_1>1.7, !- Program Line 7
  SET ems_sys_6_mixed_shr_none_sc_ccashp_sh_ccashp_ssf_vv_zh_b_e_zc_none_srf_vv__1_ClgSch0 = 29.4, !- Program Line 8
  SET ems_sys_6_mixed_shr_none_sc_ccashp_sh_ccashp_ssf_vv_zh_b_e_zc_none_srf_vv__1_HtgSch0 = 15.6, !- Program Line 9
  ELSEIF DaylightSavings==1 && DayOfWeek==1 && Hour==6 && OAT_1<23.9 && OAT_1>1.7, !- Program Line 10
  SET ems_sys_6_mixed_shr_none_sc_ccashp_sh_ccashp_ssf_vv_zh_b_e_zc_none_srf_vv__1_ClgSch0 = 29.4, !- Program Line 11
  SET ems_sys_6_mixed_shr_none_sc_ccashp_sh_ccashp_ssf_vv_zh_b_e_zc_none_srf_vv__1_HtgSch0 = 15.6, !- Program Line 12
  ELSE,                                   !- Program Line 13
  SET ems_sys_6_mixed_shr_none_sc_ccashp_sh_ccashp_ssf_vv_zh_b_e_zc_none_srf_vv__1_ClgSch0 = NULL, !- Program Line 14
  SET ems_sys_6_mixed_shr_none_sc_ccashp_sh_ccashp_ssf_vv_zh_b_e_zc_none_srf_vv__1_HtgSch0 = NULL, !- Program Line 15
  ENDIF;                                  !- Program Line 16

EnergyManagementSystem:Program,
  ems_sys_6_mixed_shr_none_sc_ccashp_sh_ccashp_ssf_vv_zh_b_e_zc_none_srf_vv__2_OptimumStartProg0, !- Name
  IF DaylightSavings==0 && DayOfWeek>1 && Hour==5 && OAT_2<23.9 && OAT_2>1.7, !- Program Line 1
  SET ems_sys_6_mixed_shr_none_sc_ccashp_sh_ccashp_ssf_vv_zh_b_e_zc_none_srf_vv__2_ClgSch0 = 29.4, !- Program Line 2
  SET ems_sys_6_mixed_shr_none_sc_ccashp_sh_ccashp_ssf_vv_zh_b_e_zc_none_srf_vv__2_HtgSch0 = 15.6, !- Program Line 3
  ELSEIF DaylightSavings==0 && DayOfWeek==1 && Hour==7 && OAT_2<23.9 && OAT_2>1.7, !- Program Line 4
  SET ems_sys_6_mixed_shr_none_sc_ccashp_sh_ccashp_ssf_vv_zh_b_e_zc_none_srf_vv__2_ClgSch0 = 29.4, !- Program Line 5
  SET ems_sys_6_mixed_shr_none_sc_ccashp_sh_ccashp_ssf_vv_zh_b_e_zc_none_srf_vv__2_HtgSch0 = 15.6, !- Program Line 6
  ELSEIF DaylightSavings==1 && DayOfWeek>1 && Hour==4 && OAT_2<23.9 && OAT_2>1.7, !- Program Line 7
  SET ems_sys_6_mixed_shr_none_sc_ccashp_sh_ccashp_ssf_vv_zh_b_e_zc_none_srf_vv__2_ClgSch0 = 29.4, !- Program Line 8
  SET ems_sys_6_mixed_shr_none_sc_ccashp_sh_ccashp_ssf_vv_zh_b_e_zc_none_srf_vv__2_HtgSch0 = 15.6, !- Program Line 9
  ELSEIF DaylightSavings==1 && DayOfWeek==1 && Hour==6 && OAT_2<23.9 && OAT_2>1.7, !- Program Line 10
  SET ems_sys_6_mixed_shr_none_sc_ccashp_sh_ccashp_ssf_vv_zh_b_e_zc_none_srf_vv__2_ClgSch0 = 29.4, !- Program Line 11
  SET ems_sys_6_mixed_shr_none_sc_ccashp_sh_ccashp_ssf_vv_zh_b_e_zc_none_srf_vv__2_HtgSch0 = 15.6, !- Program Line 12
  ELSE,                                   !- Program Line 13
  SET ems_sys_6_mixed_shr_none_sc_ccashp_sh_ccashp_ssf_vv_zh_b_e_zc_none_srf_vv__2_ClgSch0 = NULL, !- Program Line 14
  SET ems_sys_6_mixed_shr_none_sc_ccashp_sh_ccashp_ssf_vv_zh_b_e_zc_none_srf_vv__2_HtgSch0 = NULL, !- Program Line 15
  ENDIF;                                  !- Program Line 16

EnergyManagementSystem:Program,
  ems_sys_6_mixed_shr_none_sc_ccashp_sh_ccashp_ssf_vv_zh_b_e_zc_none_srf_vv__OptimumStartProg0, !- Name
  IF DaylightSavings==0 && DayOfWeek>1 && Hour==5 && OAT<23.9 && OAT>1.7, !- Program Line 1
  SET ems_sys_6_mixed_shr_none_sc_ccashp_sh_ccashp_ssf_vv_zh_b_e_zc_none_srf_vv__ClgSch0 = 29.4, !- Program Line 2
  SET ems_sys_6_mixed_shr_none_sc_ccashp_sh_ccashp_ssf_vv_zh_b_e_zc_none_srf_vv__HtgSch0 = 15.6, !- Program Line 3
  ELSEIF DaylightSavings==0 && DayOfWeek==1 && Hour==7 && OAT<23.9 && OAT>1.7, !- Program Line 4
  SET ems_sys_6_mixed_shr_none_sc_ccashp_sh_ccashp_ssf_vv_zh_b_e_zc_none_srf_vv__ClgSch0 = 29.4, !- Program Line 5
  SET ems_sys_6_mixed_shr_none_sc_ccashp_sh_ccashp_ssf_vv_zh_b_e_zc_none_srf_vv__HtgSch0 = 15.6, !- Program Line 6
  ELSEIF DaylightSavings==1 && DayOfWeek>1 && Hour==4 && OAT<23.9 && OAT>1.7, !- Program Line 7
  SET ems_sys_6_mixed_shr_none_sc_ccashp_sh_ccashp_ssf_vv_zh_b_e_zc_none_srf_vv__ClgSch0 = 29.4, !- Program Line 8
  SET ems_sys_6_mixed_shr_none_sc_ccashp_sh_ccashp_ssf_vv_zh_b_e_zc_none_srf_vv__HtgSch0 = 15.6, !- Program Line 9
  ELSEIF DaylightSavings==1 && DayOfWeek==1 && Hour==6 && OAT<23.9 && OAT>1.7, !- Program Line 10
  SET ems_sys_6_mixed_shr_none_sc_ccashp_sh_ccashp_ssf_vv_zh_b_e_zc_none_srf_vv__ClgSch0 = 29.4, !- Program Line 11
  SET ems_sys_6_mixed_shr_none_sc_ccashp_sh_ccashp_ssf_vv_zh_b_e_zc_none_srf_vv__HtgSch0 = 15.6, !- Program Line 12
  ELSE,                                   !- Program Line 13
  SET ems_sys_6_mixed_shr_none_sc_ccashp_sh_ccashp_ssf_vv_zh_b_e_zc_none_srf_vv__ClgSch0 = NULL, !- Program Line 14
  SET ems_sys_6_mixed_shr_none_sc_ccashp_sh_ccashp_ssf_vv_zh_b_e_zc_none_srf_vv__HtgSch0 = NULL, !- Program Line 15
  ENDIF;                                  !- Program Line 16

EnergyManagementSystem:ProgramCallingManager,
  ems_sys_6_mixed_shr_none_sc_ccashp_sh_ccashp_ssf_vv_zh_b_e_zc_none_srf_vv__1_OptimumStartCallingManager0, !- Name
  BeginTimestepBeforePredictor,           !- EnergyPlus Model Calling Point
  ems_sys_6_mixed_shr_none_sc_ccashp_sh_ccashp_ssf_vv_zh_b_e_zc_none_srf_vv__1_OptimumStartProg0; !- Program Name 1

EnergyManagementSystem:ProgramCallingManager,
  ems_sys_6_mixed_shr_none_sc_ccashp_sh_ccashp_ssf_vv_zh_b_e_zc_none_srf_vv__2_OptimumStartCallingManager0, !- Name
  BeginTimestepBeforePredictor,           !- EnergyPlus Model Calling Point
  ems_sys_6_mixed_shr_none_sc_ccashp_sh_ccashp_ssf_vv_zh_b_e_zc_none_srf_vv__2_OptimumStartProg0; !- Program Name 1

EnergyManagementSystem:ProgramCallingManager,
  ems_sys_6_mixed_shr_none_sc_ccashp_sh_ccashp_ssf_vv_zh_b_e_zc_none_srf_vv__OptimumStartCallingManager0, !- Name
  BeginTimestepBeforePredictor,           !- EnergyPlus Model Calling Point
  ems_sys_6_mixed_shr_none_sc_ccashp_sh_ccashp_ssf_vv_zh_b_e_zc_none_srf_vv__OptimumStartProg0; !- Program Name 1

OutputControl:Table:Style,
  Comma;                                   !- Column Separator

Output:VariableDictionary,
  IDF,                                    !- Key Field
  Unsorted;                               !- Sort Option

Output:SQLite,
  SimpleAndTabular;                       !- Option Type

LifeCycleCost:NonrecurringCost,
  Default Cost,                           !- Name
  Construction,                           !- Category
  0,                                      !- Cost
  ServicePeriod;                          !- Start of Costs

